p cnf 200 6068
1 2 3 4 5 6 7 8 9 10 11 12 13 14 15 16 17 18 19 20 21 22 23 24 25 26 27 28 29 30 31 32 33 34 35 36 37 38 39 40 41 42 43 44 45 46 47 48 49 50 51 52 53 54 55 56 57 58 59 60 61 62 63 64 65 66 67 68 69 70 71 72 73 74 75 76 77 78 79 80 81 82 83 84 85 86 87 88 89 90 91 92 93 94 95 96 97 98 99 100 101 102 103 104 105 106 107 108 109 110 111 112 113 114 115 116 117 118 119 120 121 122 123 124 125 126 127 128 129 130 131 132 133 134 135 136 137 138 139 140 141 142 143 144 145 146 147 148 149 150 151 152 153 154 155 156 157 158 159 160 161 162 163 164 165 166 167 168 169 170 171 172 173 174 175 176 177 178 179 180 181 182 183 184 185 186 187 188 189 190 191 192 193 194 195 196 197 198 199 200 0
162 0
54 0
154 0
120 0
57 0
39 0
110 0
111 0
40 0
121 0
156 0
107 0
35 0
53 0
123 0
-35 -40 36 33 0
-35 -53 49 63 0
-35 -54 69 49 63 0
-35 -54 36 28 33 0
-35 -57 69 49 66 0
-35 -57 45 30 42 0
-35 -57 36 28 34 0
-35 -107 155 89 136 0
-35 -107 69 15 49 63 0
-35 -107 36 2 28 33 0
-35 -110 155 89 136 152 0
-35 -110 69 15 49 66 0
-35 -110 45 5 30 42 0
-35 -110 36 2 28 34 0
-35 -111 15 49 66 70 0
-35 -111 5 30 42 0
-35 -111 2 28 34 37 0
-35 -120 155 89 152 0
-35 -120 69 15 66 0
-35 -120 36 2 34 0
-35 -121 15 66 70 0
-35 -121 2 34 37 0
-35 -123 15 70 0
-35 -154 37 34 0
-39 -57 45 30 42 0
-39 -107 161 92 140 0
-39 -110 161 92 140 158 0
-39 -110 45 5 30 42 0
-39 -111 5 30 42 0
-39 -111 3 38 41 0
-39 -120 161 92 158 0
-39 -120 19 63 72 0
-39 -121 19 63 72 75 0
-39 -121 3 33 38 41 0
-39 -123 19 63 75 0
-39 -154 41 33 38 0
-40 -35 36 45 0
-40 -57 31 43 0
-40 -107 93 141 0
-40 -110 93 141 159 0
-40 -110 6 31 43 0
-40 -111 93 141 159 163 0
-40 -111 6 31 43 46 0
-40 -111 3 38 41 0
-40 -120 93 150 159 0
-40 -120 20 64 73 0
-40 -120 6 36 43 0
-40 -121 93 150 159 163 0
-40 -121 20 64 73 76 0
-40 -121 6 36 43 46 0
-54 -154 -120 -23 -147 -20 -121 -156 -140 -53 0
-99 -30 147 0
-99 -32 147 0
-99 -60 147 0
-156 -30 147 0
-156 -32 147 0
-156 -60 147 0
-162 -30 147 0
-162 -32 147 0
-162 -60 147 0
-165 -30 147 0
-165 -32 147 0
-165 -60 147 0
-167 -30 147 0
-167 -32 147 0
-167 -60 147 0
-39 -134 140 0
-39 -136 140 0
-39 -169 140 0
-82 -30 140 0
-82 -39 140 0
-82 -53 140 0
-92 -134 140 0
-92 -136 140 0
-92 -169 140 0
-134 -30 140 0
-134 -39 140 0
-134 -53 140 0
-139 -30 140 0
-139 -39 140 0
-139 -53 140 0
-141 -30 140 0
-141 -39 140 0
-141 -53 140 0
-142 -30 140 0
-142 -39 140 0
-142 -53 140 0
-158 -134 140 0
-158 -136 140 0
-158 -169 140 0
-161 -134 140 0
-161 -136 140 0
-161 -169 140 0
-162 -134 140 0
-162 -136 140 0
-162 -169 140 0
-52 -144 139 0
-52 -159 139 0
-54 -144 141 0
-54 -159 141 0
-105 -144 139 0
-105 -159 139 0
-107 -144 141 0
-107 -159 141 0
-168 -144 139 0
-168 -159 139 0
-170 -144 141 0
-170 -159 141 0
-178 -144 139 0
-178 -159 139 0
-179 -144 139 0
-179 -159 139 0
-180 -144 141 0
-180 -159 141 0
-182 -144 141 0
-182 -159 141 0
-155 -54 -10 -52 -111 -40 -121 -156 -161 -123 0
-39 -137 161 140 0
-39 -146 161 140 0
-39 -150 161 0
-39 -155 161 0
-39 -170 161 140 0
-39 -175 161 140 0
-39 -180 161 140 0
-39 -190 161 0
-40 -143 141 159 161 0
-40 -146 141 161 0
-40 -158 159 161 0
-40 -164 159 161 0
-40 -178 141 159 161 0
-40 -180 141 161 0
-40 -183 141 159 161 0
-40 -196 159 161 0
-92 -137 161 140 0
-92 -146 161 140 0
-92 -150 161 0
-92 -155 161 0
-92 -170 161 140 0
-92 -175 161 140 0
-92 -180 161 140 0
-92 -190 161 0
-93 -143 141 159 161 0
-93 -146 141 161 0
-93 -158 159 161 0
-93 -164 159 161 0
-93 -178 141 159 161 0
-93 -180 141 161 0
-93 -183 141 159 161 0
-93 -196 159 161 0
-128 -39 161 0
-128 -40 161 0
-128 -45 161 0
-150 -143 141 159 161 0
-150 -146 141 161 0
-150 -158 159 161 0
-150 -164 159 161 0
-150 -178 141 159 161 0
-150 -180 141 161 0
-150 -183 141 159 161 0
-150 -196 159 161 0
-158 -137 161 140 0
-158 -146 161 140 0
-158 -150 161 0
-158 -155 161 0
-158 -170 161 140 0
-158 -175 161 140 0
-158 -180 161 140 0
-35 -137 155 136 0
-35 -146 155 136 0
-35 -150 155 0
-35 -161 155 0
-35 -170 155 136 0
-35 -175 155 136 0
-35 -180 155 136 0
-35 -190 155 0
-89 -137 155 136 0
-89 -146 155 136 0
-89 -150 155 0
-89 -161 155 0
-89 -170 155 136 0
-89 -175 155 136 0
-89 -180 155 136 0
-89 -190 155 0
-152 -137 155 136 0
-152 -146 155 136 0
-152 -150 155 0
-152 -161 155 0
-152 -170 155 136 0
-152 -175 155 136 0
-152 -180 155 136 0
-152 -190 155 0
-156 -137 155 136 0
-156 -146 155 136 0
-156 -150 155 0
-156 -161 155 0
-156 -170 155 136 0
-156 -175 155 136 0
-156 -180 155 136 0
-156 -190 155 0
-35 -140 136 0
-36 -54 50 64 0
-36 -57 50 67 0
-36 -73 64 67 0
-36 -107 90 137 150 0
-36 -107 16 50 64 0
-36 -110 90 137 153 0
-36 -110 16 50 67 0
-36 -111 90 137 153 157 0
-36 -111 16 50 67 71 0
-36 -120 90 153 0
-36 -120 16 67 0
-36 -121 90 153 157 0
-36 -121 16 67 71 0
-36 -141 137 150 0
-36 -154 157 153 0
-36 -159 150 153 0
-37 -42 44 0
-37 -43 46 44 0
-37 -54 71 51 65 0
-37 -57 71 51 68 0
-37 -57 46 32 44 0
-37 -73 71 65 68 0
-37 -107 157 138 151 0
-37 -107 71 17 51 65 0
-37 -110 71 17 51 68 0
-37 -110 46 7 32 44 0
-37 -111 17 51 68 0
-37 -111 7 32 44 0
-37 -120 71 17 68 0
-37 -121 17 68 0
-37 -141 157 138 151 0
-39 -73 72 0
-40 -63 64 0
-40 -69 64 0
-40 -70 76 64 0
-40 -123 20 64 76 0
-41 -42 44 0
-41 -43 46 44 0
-41 -53 55 75 0
-41 -54 76 55 0
-41 -57 76 55 74 0
-41 -57 46 32 44 0
-41 -63 65 75 0
-41 -69 76 65 75 0
-41 -70 65 75 0
-41 -73 76 74 0
-41 -107 163 94 142 0
-41 -107 76 21 55 0
-41 -110 163 94 142 160 0
-41 -68 65 74 0
-41 -111 94 142 160 0
-41 -111 21 55 74 0
-41 -121 94 151 160 0
-41 -121 21 65 74 0
-41 -154 151 160 0
-42 -53 56 72 0
-42 -54 77 56 72 0
-42 -57 77 56 0
-42 -63 66 72 0
-42 -64 77 66 72 0
-42 -67 77 66 0
-42 -68 78 66 0
-42 -69 77 66 0
-42 -70 78 66 0
-42 -71 77 78 66 0
-42 -75 78 72 0
-42 -76 77 78 72 0
-42 -107 164 95 143 158 0
-42 -107 77 22 56 72 0
-42 -110 164 95 143 0
-42 -110 77 22 56 0
-42 -111 95 143 165 0
-42 -111 22 56 78 0
-42 -120 164 95 152 0
-42 -120 77 22 66 0
-42 -121 95 152 165 0
-42 -121 22 66 78 0
-42 -123 95 152 165 0
-42 -123 22 66 78 0
-42 -136 143 152 0
-42 -140 143 158 0
-42 -141 164 143 158 0
-42 -150 164 152 158 0
-42 -153 164 152 0
-42 -154 165 152 0
-42 -155 164 152 0
-42 -156 165 152 0
-42 -157 164 165 152 0
-42 -161 164 158 0
-42 -162 165 158 0
-42 -163 164 165 158 0
-43 -75 79 73 77 0
-43 -76 79 73 0
-43 -107 96 144 159 0
-43 -110 96 144 0
-43 -111 96 144 166 0
-43 -140 144 159 164 0
-43 -141 144 159 0
-43 -161 159 164 0
-40 -72 73 0
-40 -77 73 0
-43 -160 166 159 0
-43 -163 166 159 0
-44 -110 166 97 145 0
-44 -111 97 145 0
-44 -111 24 58 0
-44 -144 166 145 0
-53 -35 30 49 0
-53 -36 59 30 49 0
-53 -37 60 30 49 0
-53 -37 55 47 0
-53 -41 55 0
-53 -42 30 56 0
-53 -43 59 30 56 0
-53 -44 60 30 56 0
-53 -44 55 52 0
-53 -57 59 56 0
-53 -67 59 49 56 0
-53 -68 60 49 56 0
-53 -68 55 47 52 0
-53 -69 59 49 0
-53 -70 60 49 0
-53 -71 59 60 49 0
-53 -74 55 52 0
-53 -77 59 56 0
-53 -78 60 56 0
-53 -79 59 60 56 0
-53 -107 180 106 0
-53 -110 180 106 178 0
-53 -110 59 11 56 0
-53 -111 106 178 181 0
-53 -111 11 56 60 0
-53 -111 9 52 55 0
-53 -120 180 106 169 178 0
-53 -120 59 11 49 56 0
-53 -121 106 169 178 181 0
-53 -121 11 49 56 60 0
-53 -121 9 47 52 55 0
-53 -123 106 169 181 0
-53 -123 11 49 60 0
-53 -136 30 49 0
-53 -144 59 30 56 0
-53 -152 30 49 56 0
-53 -153 59 30 49 56 0
-53 -154 60 30 49 56 0
-53 -154 55 47 52 0
-53 -155 59 30 49 0
-53 -156 60 30 49 0
-53 -157 59 60 30 49 0
-35 -72 63 66 0
-37 -55 51 65 0
-39 -64 63 0
-39 -69 63 0
-40 -75 76 0
-41 -64 76 65 0
-41 -71 76 65 0
-49 -36 50 28 0
-49 -37 51 28 0
-49 -40 50 28 47 0
-49 -41 51 28 47 0
-49 -43 50 28 48 0
-49 -44 51 28 48 0
-49 -54 50 47 0
-49 -55 51 47 0
-49 -57 50 48 0
-49 -58 51 48 0
-49 -64 50 47 0
-49 -67 50 48 0
-49 -68 51 48 0
-49 -71 50 51 0
-49 -72 63 66 0
-49 -73 50 47 48 0
-49 -74 51 47 48 0
-49 -107 175 102 169 0
-49 -107 50 8 47 0
-49 -110 175 102 172 0
-49 -110 50 8 48 0
-49 -111 102 172 176 0
-49 -111 8 48 51 0
-49 -120 175 102 172 0
-49 -120 50 8 48 0
-49 -121 102 172 176 0
-49 -121 8 48 51 0
-49 -123 102 176 0
-49 -141 50 28 47 0
-49 -144 50 28 48 0
-49 -145 51 28 48 0
-49 -150 50 28 47 0
-49 -153 50 28 48 0
-49 -154 51 28 48 0
-49 -157 50 51 28 0
-49 -160 51 28 47 48 0
-49 -163 50 51 28 47 0
-49 -166 50 51 28 48 0
-49 -180 175 169 0
-49 -181 176 169 0
-53 -64 63 0
-53 -69 63 0
-54 -35 31 50 59 0
-36 -70 71 69 0
-36 -75 71 64 69 0
-36 -76 71 64 0
-36 -123 16 71 69 0
-37 -76 71 65 0
-50 -70 71 69 0
-50 -75 71 64 69 0
-50 -76 71 64 0
-50 -107 103 170 0
-50 -110 103 173 0
-50 -111 103 173 177 0
-50 -120 103 173 0
-50 -121 103 173 177 0
-50 -123 16 71 69 0
-50 -141 137 170 0
-50 -144 137 173 0
-50 -145 177 137 173 0
-50 -150 137 170 0
-50 -153 137 173 0
-50 -154 177 137 173 0
-50 -157 177 137 0
-50 -160 177 137 170 173 0
-50 -163 177 137 170 0
-50 -166 177 137 173 0
-51 -76 71 65 0
-51 -107 177 104 171 0
-51 -110 177 104 174 0
-51 -111 104 174 0
-51 -120 177 104 174 0
-51 -121 104 174 0
-51 -141 177 138 171 0
-51 -144 177 138 174 0
-51 -145 138 174 0
-51 -150 177 138 171 0
-51 -153 177 138 174 0
-51 -154 138 174 0
-51 -157 177 138 0
-51 -160 138 171 174 0
-51 -163 177 138 171 0
-51 -166 177 138 174 0
-55 -107 182 108 0
-55 -110 182 108 179 0
-55 -111 108 179 0
-55 -120 182 108 171 179 0
-55 -121 108 171 179 0
-55 -141 182 142 0
-55 -144 182 142 179 0
-55 -145 142 179 0
-55 -150 182 142 171 0
-55 -153 182 142 171 179 0
-35 -139 28 33 34 0
-36 -139 28 33 34 0
-37 -139 28 33 34 0
-39 -139 38 0
-40 -139 38 0
-41 -139 38 0
-42 -139 29 38 0
-43 -139 29 38 0
-44 -139 29 38 0
-49 -139 28 47 48 0
-50 -139 28 47 48 0
-51 -139 28 47 48 0
-53 -139 52 0
-54 -139 52 0
-55 -139 52 0
-56 -107 183 109 178 0
-56 -110 183 109 0
-56 -111 109 184 0
-56 -120 183 109 172 0
-56 -121 109 172 184 0
-56 -123 109 172 184 0
-56 -136 143 172 0
-56 -139 143 178 0
-56 -139 29 52 0
-56 -140 143 178 0
-56 -141 183 143 178 0
-56 -144 183 143 0
-56 -145 184 143 0
-56 -150 183 143 172 178 0
-56 -152 143 172 0
-56 -153 183 143 172 0
-56 -154 184 143 172 0
-56 -155 183 143 172 0
-56 -156 184 143 172 0
-56 -157 183 184 143 172 0
-56 -158 143 178 0
-56 -160 184 143 178 0
-56 -161 183 143 178 0
-56 -162 184 143 178 0
-56 -163 183 184 143 178 0
-56 -164 183 143 0
-56 -165 184 143 0
-56 -166 183 184 143 0
-56 -170 183 172 178 0
-56 -173 183 172 0
-56 -174 184 172 0
-56 -175 183 172 0
-56 -176 184 172 0
-56 -177 183 184 172 0
-56 -179 184 178 0
-37 -108 138 151 0
-37 -142 138 151 0
-40 -160 163 159 0
-40 -166 163 159 0
-41 -150 163 151 0
-41 -157 163 151 0
-51 -108 104 171 0
-51 -142 138 171 0
-55 -170 182 171 0
-55 -173 182 171 179 0
-55 -174 171 179 0
-55 -177 182 171 0
-66 -107 193 119 172 187 0
-66 -108 119 172 187 0
-66 -110 193 119 172 0
-66 -111 119 172 0
-66 -120 193 119 0
-66 -121 119 0
-66 -123 119 0
-66 -136 152 172 0
-66 -140 152 172 187 0
-66 -141 193 152 172 187 0
-66 -142 152 172 187 0
-66 -143 152 172 0
-66 -144 193 152 172 0
-66 -145 152 172 0
-66 -150 193 152 187 0
-66 -153 193 152 0
-66 -154 152 0
-66 -155 193 152 0
-66 -156 152 0
-66 -157 193 152 0
-66 -160 152 187 0
-66 -161 193 152 187 0
-66 -162 152 187 0
-66 -164 193 152 0
-66 -165 152 0
-66 -166 193 152 0
-66 -170 193 172 187 0
-66 -173 193 172 0
-66 -174 172 0
-66 -175 193 172 0
-66 -176 172 0
-66 -177 193 172 0
-66 -180 193 172 187 0
-66 -181 172 187 0
-66 -183 193 172 0
-66 -184 172 0
-70 -42 78 0
-70 -43 80 78 0
-39 -119 92 158 0
-39 -152 158 0
-43 -78 79 77 0
-53 -119 106 169 178 0
-53 -172 169 178 0
-57 -78 79 77 0
-67 -78 79 77 0
-71 -42 46 79 80 0
-71 -43 46 79 0
-71 -44 46 79 0
-71 -56 61 79 80 0
-71 -57 61 79 0
-71 -58 61 79 0
-71 -78 79 80 0
-71 -107 124 177 192 0
-71 -108 124 177 192 0
-71 -110 124 177 194 0
-71 -110 27 61 79 0
-71 -111 124 177 194 0
-71 -111 27 61 79 0
-71 -119 124 194 195 0
-71 -120 124 194 0
-71 -121 124 194 0
-71 -123 124 195 0
-71 -136 157 177 195 0
-71 -140 157 177 192 195 0
-71 -141 157 177 192 0
-71 -142 157 177 192 0
-71 -143 157 177 194 195 0
-71 -143 46 61 79 80 0
-71 -144 157 177 194 0
-71 -144 46 61 79 0
-71 -145 157 177 194 0
-71 -145 46 61 79 0
-71 -150 157 192 0
-71 -151 157 192 0
-71 -152 157 194 195 0
-71 -153 157 194 0
-71 -154 157 194 0
-71 -155 157 195 0
-71 -156 157 195 0
-71 -161 157 192 195 0
-71 -162 157 192 195 0
-71 -164 157 194 195 0
-71 -164 46 79 80 0
-71 -165 157 194 195 0
-71 -165 46 79 80 0
-71 -170 177 192 0
-71 -171 177 192 0
-71 -172 177 194 195 0
-44 -158 160 165 0
-44 -161 166 160 165 0
-44 -162 160 165 0
-44 -164 166 165 0
-50 -123 103 177 175 0
-50 -136 137 175 0
-50 -155 137 175 0
-50 -156 177 137 175 0
-50 -176 177 175 0
-50 -195 177 175 0
-66 -192 193 187 0
-66 -194 193 0
-66 -195 193 0
-72 -107 196 125 178 0
-72 -108 125 178 197 0
-72 -110 196 125 178 0
-72 -111 125 178 197 0
-72 -119 125 187 0
-72 -120 196 125 187 0
-72 -121 125 187 197 0
-72 -123 125 187 197 0
-72 -169 178 187 0
-72 -170 196 178 187 0
-72 -171 197 178 187 0
-72 -172 178 187 0
-72 -173 196 178 187 0
-72 -174 197 178 187 0
-72 -176 197 178 187 0
-72 -180 196 178 0
-72 -181 197 178 0
-72 -183 196 178 0
-72 -184 197 178 0
-72 -192 196 197 187 0
-72 -194 196 197 187 0
-72 -195 196 197 187 0
-73 -107 126 0
-73 -108 126 198 0
-73 -110 126 0
-73 -111 126 198 0
-73 -119 126 188 196 0
-73 -120 126 188 0
-73 -121 126 188 198 0
-73 -123 126 188 198 196 0
-73 -136 159 188 196 0
-73 -140 159 196 0
-73 -141 159 0
-73 -142 198 159 0
-73 -143 159 196 0
-73 -144 159 0
-73 -145 198 159 0
-41 -126 163 94 160 0
-41 -159 163 160 0
-43 -165 166 164 0
-44 -126 166 97 160 0
-44 -159 166 160 0
-68 -187 189 0
-68 -197 189 0
-70 -187 191 0
-70 -197 191 0
-73 -170 188 0
-73 -171 198 188 0
-73 -173 188 0
-73 -174 198 188 0
-73 -192 198 188 0
-73 -194 198 188 0
-74 -107 198 127 179 0
-74 -108 127 179 0
-74 -110 198 127 179 0
-74 -111 127 179 0
-74 -120 198 127 189 0
-74 -121 127 189 0
-74 -126 198 127 0
-74 -141 198 160 179 0
-74 -142 160 179 0
-74 -144 198 160 179 0
-74 -145 160 179 0
-74 -150 198 160 189 0
-74 -151 160 189 0
-74 -153 198 160 189 0
-74 -154 160 189 0
-74 -159 198 160 0
-74 -170 198 179 189 0
-74 -171 179 189 0
-74 -173 198 179 189 0
-74 -174 179 189 0
-74 -192 198 189 0
-74 -194 198 189 0
-75 -123 129 191 0
-75 -192 199 191 0
-75 -195 199 191 0
-76 -107 130 182 0
-76 -108 130 182 0
-76 -110 130 182 198 0
-76 -111 130 182 198 0
-76 -126 130 198 0
-76 -140 163 182 199 0
-76 -141 163 182 0
-76 -142 163 182 0
-76 -143 163 182 198 199 0
-76 -144 163 182 198 0
-57 -182 185 0
-57 -198 185 0
-58 -182 185 179 0
-58 -198 185 179 0
-76 -161 163 199 0
-76 -162 163 199 0
-78 -119 132 0
-78 -120 200 132 0
-78 -121 132 0
-78 -123 132 0
-78 -152 165 0
-78 -153 200 165 0
-78 -154 165 0
-78 -155 200 165 0
-78 -156 165 0
-78 -193 200 0
-78 -194 200 0
-78 -195 200 0
-79 -110 185 0
-79 -111 185 0
-79 -143 166 185 200 0
-79 -144 166 185 0
-79 -145 166 185 0
-79 -183 185 200 0
-79 -184 185 200 0
-107 -35 20 93 117 128 0
-107 -35 85 103 112 0
-107 -35 9 82 101 106 0
-107 -36 20 93 117 0
-107 -36 85 103 0
-107 -37 20 130 93 117 0
-107 -37 114 85 103 0
-107 -39 20 93 128 0
-107 -39 9 82 106 0
-107 -40 20 93 0
-107 -41 20 130 93 0
-107 -42 9 82 105 106 0
-107 -49 103 112 0
-107 -49 9 101 106 0
-107 -50 103 0
-107 -51 114 103 0
-107 -53 9 106 0
-107 -56 9 105 106 0
-107 -66 9 101 105 106 0
-107 -70 20 130 117 128 0
-107 -70 114 103 112 0
-107 -71 20 130 117 0
-107 -71 114 103 0
-107 -72 9 105 106 0
-107 -75 20 130 128 0
-36 -103 90 137 0
-37 -103 157 138 0
-41 -93 163 94 0
-41 -130 163 94 0
-51 -103 177 104 0
-53 -182 180 181 0
-53 -183 180 178 0
-53 -184 181 178 0
-53 -185 180 181 178 0
-53 -196 180 178 0
-53 -197 181 178 0
-53 -199 180 181 0
-53 -200 180 181 178 0
-54 -183 180 0
-54 -196 180 0
-55 -184 179 181 0
-55 -197 179 181 0
-56 -106 109 178 0
-71 -103 124 177 0
-72 -106 125 178 0
-73 -182 198 0
-73 -185 198 0
-74 -182 198 179 0
-74 -185 198 179 0
-75 -106 129 181 0
-75 -108 129 181 0
-76 -159 163 198 0
-76 -160 163 198 0
-76 -166 163 198 0
-79 -126 198 0
-79 -127 198 0
-79 -130 198 0
-93 -35 6 90 98 0
-93 -35 3 87 92 0
-93 -36 6 90 0
-93 -37 6 100 90 0
-93 -37 3 94 87 0
-93 -39 3 92 0
-93 -41 3 94 0
-93 -42 6 96 98 0
-93 -42 3 91 92 0
-93 -43 6 96 0
-93 -44 6 100 96 0
-93 -44 3 94 91 0
-93 -49 6 85 90 98 0
-93 -49 3 82 87 92 0
-93 -50 6 85 90 0
-93 -51 6 100 85 90 0
-93 -51 3 94 82 87 0
-93 -53 3 82 92 0
-35 -92 89 0
-35 -106 89 136 0
-37 -94 151 0
-49 -92 102 136 169 0
-49 -106 102 169 0
-51 -94 104 138 171 0
-55 -94 108 142 0
-71 -130 124 192 0
-72 -126 196 125 0
-72 -130 196 125 197 0
-72 -132 125 197 0
-72 -198 196 197 0
-72 -200 196 197 0
-73 -152 159 188 196 0
-73 -155 159 188 196 0
-73 -158 159 196 0
-73 -161 159 196 0
-73 -164 159 196 0
-73 -172 188 196 0
-73 -175 188 196 0
-73 -178 196 0
-73 -180 196 0
-73 -183 196 0
-73 -187 188 196 0
-73 -193 188 196 0
-74 -132 127 197 0
-75 -126 199 129 197 0
-75 -130 199 129 0
-75 -132 129 197 0
-75 -198 199 197 0
-75 -200 199 197 0
-76 -191 192 199 0
-76 -195 192 199 0
-78 -187 197 0
-78 -189 197 0
-78 -191 197 0
-90 -35 2 89 0
-90 -37 2 0
-90 -39 2 87 89 0
-90 -41 2 87 0
-90 -42 2 88 89 0
-90 -44 2 88 0
-90 -49 2 81 89 0
-90 -51 2 81 0
-90 -53 2 81 87 89 0
-90 -55 2 81 87 0
-90 -56 2 81 88 89 0
-90 -58 2 81 88 0
-90 -66 2 88 89 0
-90 -68 2 88 0
-34 -41 37 33 0
-34 -51 68 48 0
-34 -51 37 28 0
-34 -55 68 48 62 0
-34 -55 37 28 33 0
-34 -58 68 48 0
-34 -74 68 62 0
-34 -81 2 28 0
-34 -87 2 33 0
-34 -94 2 33 37 0
-34 -111 14 48 68 0
-34 -121 14 68 0
-34 -142 37 28 33 0
-34 -171 68 48 62 0
-34 -171 37 28 33 0
-34 -174 68 48 0
-34 -179 68 48 62 0
-34 -189 68 62 0
-35 -41 37 33 0
-35 -51 37 28 0
-35 -55 37 28 33 0
-35 -81 2 28 0
-35 -87 2 33 0
-35 -94 2 33 37 0
-35 -142 37 28 33 0
-35 -171 37 28 33 0
-36 -41 37 33 0
-36 -51 37 28 0
-36 -55 37 28 33 0
-36 -81 2 28 0
-36 -87 2 33 0
-36 -94 2 33 37 0
-36 -142 37 28 33 0
-36 -171 37 28 33 0
-39 -34 33 38 0
-39 -81 3 33 0
-39 -87 3 33 0
-39 -88 3 33 38 0
-40 -34 33 38 0
-40 -81 3 33 0
-40 -87 3 33 0
-40 -88 3 33 38 0
-41 -34 33 38 0
-41 -35 37 0
-41 -36 46 37 0
-41 -49 32 37 0
-41 -50 46 32 37 0
-41 -51 32 37 0
-41 -70 37 0
-41 -71 46 37 0
-34 -111 4 29 44 0
-38 -68 74 62 0
-38 -88 91 149 0
-38 -90 159 91 149 0
-38 -93 159 91 0
-38 -96 159 91 0
-38 -103 159 91 139 149 0
-38 -107 159 91 139 0
-38 -110 159 91 139 0
-38 -111 91 139 160 0
-38 -111 4 29 44 0
-38 -120 159 91 149 0
-38 -121 91 149 160 0
-38 -121 18 62 74 0
-38 -126 159 91 0
-38 -130 159 91 160 0
-38 -154 160 149 0
-38 -157 159 160 149 0
-38 -177 159 160 139 149 0
-38 -185 159 160 139 0
-38 -189 160 149 0
-38 -189 74 62 0
-38 -192 159 160 149 0
-38 -194 159 160 149 0
-38 -198 159 160 0
-40 -154 163 150 159 0
-40 -157 163 150 0
-40 -177 163 141 150 0
-40 -185 163 141 159 0
-40 -189 163 150 159 0
-40 -192 163 150 0
-40 -194 163 150 159 0
-40 -198 163 159 0
-42 -111 4 29 44 0
-43 -111 4 29 44 0
-43 -154 166 153 0
-43 -157 166 153 0
-43 -177 166 144 153 0
-43 -185 166 144 0
-43 -189 166 153 159 0
-43 -192 166 153 159 0
-43 -194 166 153 0
-43 -198 166 159 0
-48 -88 135 0
-48 -90 173 135 0
-48 -93 173 135 168 0
-48 -96 173 135 0
-48 -103 173 0
-48 -107 173 168 0
-48 -110 173 0
-34 -188 153 149 0
-36 -135 137 153 0
-36 -173 137 153 0
-36 -188 150 153 0
-38 -135 139 149 0
-38 -173 159 139 149 0
-38 -188 159 149 0
-40 -135 141 150 159 0
-40 -173 141 150 159 0
-40 -188 150 159 0
-43 -135 144 153 0
-43 -173 144 153 0
-43 -188 153 159 0
-44 -35 37 0
-44 -36 46 37 0
-44 -39 41 0
-44 -40 46 41 0
-44 -49 32 37 0
-44 -50 46 32 37 0
-44 -53 32 41 0
-44 -54 46 32 41 0
-44 -70 37 0
-44 -71 46 37 0
-44 -75 41 0
-44 -76 46 41 0
-44 -89 7 37 0
-44 -90 46 7 37 0
-44 -92 7 41 0
-44 -93 46 7 41 0
-44 -103 46 7 32 37 0
-44 -106 7 32 41 0
-44 -107 46 7 32 41 0
-44 -123 7 37 0
-44 -130 46 7 41 0
-44 -136 32 37 0
-44 -140 32 41 0
-44 -155 46 37 0
-44 -156 37 0
-44 -157 46 37 0
-44 -161 46 41 0
-44 -162 41 0
-44 -163 46 41 0
-44 -169 32 37 41 0
-44 -175 46 32 37 0
-44 -176 32 37 0
-44 -177 46 32 37 0
-44 -180 46 32 41 0
-44 -181 32 41 0
-44 -191 37 41 0
-44 -192 46 37 41 0
-9 -29 52 0
-9 -38 52 0
-47 -29 52 0
-47 -38 52 0
-53 -29 52 0
-53 -38 52 0
-54 -29 52 0
-54 -38 52 0
-55 -29 52 0
-55 -38 52 0
-105 -29 52 139 0
-105 -31 52 139 0
-105 -38 52 139 0
-105 -40 52 139 0
-105 -43 52 139 0
-105 -54 52 0
-105 -57 52 0
-105 -73 52 0
-168 -29 52 139 0
-168 -31 52 139 0
-168 -38 52 139 0
-168 -40 52 139 0
-168 -43 52 139 0
-168 -54 52 0
-168 -57 52 0
-168 -73 52 0
-178 -29 52 139 0
-178 -31 52 139 0
-178 -38 52 139 0
-178 -40 52 139 0
-178 -43 52 139 0
-178 -54 52 0
-178 -57 52 0
-178 -73 52 0
-179 -29 52 139 0
-179 -31 52 139 0
-179 -38 52 139 0
-179 -40 52 139 0
-179 -43 52 139 0
-179 -54 52 0
-179 -57 52 0
-179 -73 52 0
-33 -49 47 63 0
-33 -50 64 47 0
-33 -50 36 28 0
-33 -51 65 47 0
-33 -53 47 63 0
-33 -54 64 47 0
-33 -55 65 47 0
-33 -56 47 62 63 0
-33 -57 64 47 62 0
-33 -58 65 47 62 0
-33 -66 62 63 0
-33 -68 65 62 0
-33 -70 65 63 0
-33 -71 64 65 0
-33 -72 62 63 0
-33 -73 64 62 0
-33 -74 65 62 0
-33 -75 65 63 0
-33 -76 64 65 0
-33 -78 65 62 63 0
-33 -79 64 65 62 0
-33 -85 150 87 134 0
-33 -85 36 2 28 0
-33 -89 87 0
-33 -92 87 0
-33 -93 150 87 0
-33 -96 150 87 149 0
-33 -98 150 87 0
-33 -103 150 87 134 0
-33 -103 64 13 47 0
-33 -103 36 2 28 0
-33 -106 87 134 0
-33 -106 13 47 63 0
-33 -107 150 87 134 0
-33 -107 64 13 47 0
-33 -108 13 47 65 0
-33 -109 87 134 149 0
-33 -109 13 47 62 63 0
-33 -110 150 87 134 149 0
-33 -110 64 13 47 62 0
-33 -111 13 47 62 65 0
-33 -119 87 149 0
-33 -119 13 62 63 0
-33 -120 150 87 149 0
-33 -120 64 13 62 0
-33 -121 13 62 65 0
-33 -123 13 65 63 0
-33 -125 87 149 0
-33 -125 13 62 63 0
-33 -126 150 87 149 0
-33 -136 134 0
-33 -140 134 0
-33 -143 134 149 0
-33 -169 134 0
-33 -187 149 0
-34 -63 62 66 0
-34 -64 67 62 0
-34 -69 67 66 0
-34 -72 62 66 0
-34 -73 67 62 0
-34 -77 67 66 0
-34 -87 88 149 0
-34 -89 88 152 0
-34 -92 88 149 152 0
-34 -106 88 135 149 152 0
-34 -109 88 135 152 0
-34 -120 67 14 0
-34 -125 88 149 152 0
-34 -125 14 62 66 0
-34 -126 67 14 62 0
-34 -136 135 152 0
-34 -140 135 149 152 0
-34 -143 135 152 0
-34 -169 135 149 152 0
-34 -187 149 152 0
-34 -187 62 66 0
-34 -188 67 62 0
-34 -196 67 62 66 0
-35 -187 152 0
-37 -45 46 0
-37 -59 46 32 0
-37 -98 46 7 0
-37 -100 157 0
-37 -100 46 7 0
-37 -112 46 7 32 0
-37 -114 157 138 0
-37 -114 46 7 32 0
-39 -76 75 0
-39 -130 19 75 0
-39 -187 158 0
-39 -199 75 0
-40 -37 46 36 0
-40 -51 46 31 36 0
-40 -100 6 46 0
-40 -114 6 31 46 0
-41 -45 46 0
-41 -59 46 32 0
-41 -72 74 75 0
-41 -78 74 75 0
-41 -98 46 7 0
-44 -94 97 160 0
-45 -63 69 0
-45 -64 69 0
-45 -65 80 69 0
-45 -66 69 77 0
-45 -67 69 77 0
-45 -68 80 69 77 0
-45 -70 80 69 0
-45 -75 80 0
-45 -76 80 0
-45 -78 80 77 0
-45 -79 80 77 0
-45 -119 25 69 77 0
-45 -120 25 69 77 0
-45 -121 25 69 77 80 0
-45 -123 25 69 80 0
-45 -130 25 80 0
-45 -132 25 80 77 0
-45 -189 80 69 77 0
-45 -191 80 69 0
-45 -197 80 77 0
-45 -198 80 77 0
-45 -199 80 0
-46 -49 61 71 80 0
-46 -51 61 71 0
-46 -59 61 80 0
-46 -70 71 80 0
-46 -112 27 61 80 0
-46 -114 27 61 0
-46 -123 27 71 80 0
-46 -176 61 71 80 0
-46 -177 61 71 0
-47 -107 170 101 0
-47 -110 170 101 168 0
-47 -120 170 101 168 0
-47 -173 170 168 0
-48 -87 135 168 0
-48 -134 135 168 0
-48 -149 135 168 0
-49 -112 175 102 0
-51 -45 61 32 60 0
-51 -46 61 32 0
-51 -59 61 60 0
-51 -98 61 12 32 60 0
-51 -100 61 12 32 0
-51 -112 61 12 60 0
-51 -114 61 12 0
-54 -37 61 31 50 0
-54 -46 61 31 0
-54 -51 61 50 0
-54 -140 141 180 0
-54 -142 182 141 0
-54 -143 141 180 0
-54 -145 182 141 0
-54 -158 141 180 0
-54 -160 182 141 0
-54 -161 141 180 0
-54 -162 182 141 180 0
-54 -163 182 141 0
-54 -164 141 180 0
-54 -165 182 141 180 0
-54 -166 182 141 0
-54 -181 182 180 0
-54 -185 182 0
-54 -197 182 180 0
-54 -198 182 0
-54 -199 182 180 0
-55 -185 182 179 0
-55 -198 182 179 0
-56 -181 184 178 0
-56 -185 183 184 0
-56 -197 184 178 0
-56 -198 183 184 178 0
-56 -199 183 184 178 0
-57 -140 144 183 0
-57 -143 144 183 0
-57 -158 144 183 0
-57 -161 144 183 0
-57 -164 144 183 0
-58 -181 179 184 0
-58 -197 179 184 0
-59 -140 146 180 0
-59 -142 186 146 180 0
-59 -143 146 183 0
-59 -145 186 146 183 0
-59 -158 146 180 183 0
-59 -160 186 146 180 183 0
-59 -161 146 180 0
-59 -162 186 146 180 0
-59 -163 186 146 180 0
-59 -164 146 183 0
-59 -165 186 146 183 0
-59 -166 186 146 183 0
-59 -181 186 180 0
-59 -185 186 183 0
-59 -197 186 180 183 0
-59 -198 186 180 183 0
-59 -199 186 180 0
-61 -140 148 182 186 0
-61 -142 148 182 0
-63 -87 116 0
-63 -89 116 0
-63 -92 116 0
-63 -93 190 116 0
-63 -96 190 116 187 0
-63 -98 190 116 0
-63 -119 116 187 0
-63 -120 190 116 187 0
-63 -149 187 0
-63 -150 190 0
-63 -152 187 0
-63 -153 190 187 0
-63 -155 190 0
-63 -158 187 0
-63 -161 190 0
-63 -164 190 187 0
-64 -37 71 36 0
-64 -46 71 36 0
-64 -51 71 50 0
-64 -61 71 50 0
-64 -100 16 36 71 0
-64 -114 16 50 71 0
-64 -119 117 188 190 0
-64 -120 117 188 0
-64 -121 117 188 192 0
-64 -123 117 192 190 0
-64 -130 117 192 0
-64 -132 117 190 192 188 0
-64 -157 71 36 0
-64 -177 71 50 0
-64 -189 192 188 0
-64 -191 192 190 0
-64 -197 192 188 190 0
-64 -198 192 188 0
-64 -199 192 190 0
-65 -130 192 118 0
-66 -189 187 0
-66 -191 187 0
-66 -197 187 0
-66 -198 193 187 0
-66 -199 193 187 0
-67 -37 71 36 0
-67 -46 71 36 0
-67 -51 71 50 0
-67 -61 71 50 0
-67 -100 16 36 71 0
-67 -114 16 50 71 0
-67 -157 71 36 0
-67 -177 71 50 0
-67 -189 194 188 0
-80 -98 133 167 0
-80 -100 133 167 0
-80 -112 133 186 0
-80 -114 133 186 0
-87 -34 2 88 0
-87 -37 2 0
-87 -43 2 90 88 0
-87 -44 2 88 0
-87 -46 2 90 0
-87 -47 13 101 0
-87 -48 13 101 115 0
-87 -48 2 81 88 0
-87 -51 13 118 101 0
-87 -51 2 81 0
-87 -54 13 117 101 0
-87 -55 13 118 101 0
-87 -57 13 117 101 115 0
-87 -57 2 90 81 88 0
-87 -58 13 118 101 115 0
-87 -58 2 81 88 0
-87 -61 13 117 101 118 0
-87 -61 2 90 81 0
-87 -64 13 117 0
-87 -65 13 118 0
-87 -67 13 117 115 0
-87 -67 2 90 88 0
-87 -68 13 118 115 0
-87 -68 2 88 0
-87 -71 13 117 118 0
-87 -71 2 90 0
-87 -76 13 117 118 0
-87 -79 13 117 115 118 0
-87 -79 2 90 88 0
-87 -96 90 88 0
-87 -100 90 0
-87 -107 117 101 0
-87 -108 118 101 0
-87 -110 117 101 115 0
-87 -110 90 81 88 0
-87 -111 118 101 115 0
-87 -111 81 88 0
-87 -114 117 118 101 0
-87 -114 90 81 0
-87 -120 117 115 0
-87 -120 90 88 0
-87 -121 118 115 0
-87 -121 88 0
-87 -130 117 118 0
-87 -135 81 88 0
-87 -145 81 88 0
-3 -8 1 2 0
-3 -28 1 2 0
-3 -107 93 82 0
-3 -110 93 82 91 0
-3 -111 94 82 91 0
-3 -141 93 82 0
-3 -144 93 82 91 0
-3 -159 93 91 0
-4 -8 1 2 0
-4 -9 10 18 0
-4 -19 18 22 0
-4 -20 23 18 0
-4 -25 23 22 0
-4 -28 1 2 0
-4 -31 43 29 0
-4 -39 38 42 0
-4 -40 43 38 0
-4 -45 43 42 0
-4 -53 29 38 42 0
-4 -53 10 18 22 0
-4 -54 43 29 38 0
-4 -54 23 10 18 0
-4 -56 29 42 0
-4 -56 10 22 0
-4 -57 43 29 0
-4 -57 23 10 0
-4 -92 91 95 0
-4 -106 83 91 95 0
-4 -106 10 18 22 0
-4 -107 96 83 91 0
-4 -107 23 10 18 0
-4 -109 83 95 0
-4 -109 10 22 0
-4 -110 96 83 0
-4 -110 23 10 0
-4 -111 97 83 0
-4 -111 24 10 0
-4 -140 83 91 95 0
-4 -140 29 38 42 0
-4 -141 96 83 91 0
-4 -141 43 29 38 0
-4 -143 83 95 0
-4 -143 29 42 0
-4 -144 96 83 0
-4 -144 43 29 0
-4 -159 96 91 0
-4 -159 43 38 0
-4 -162 97 91 95 0
-4 -162 44 38 42 0
-5 -8 1 2 0
-1 -23 10 0
-1 -57 10 0
-1 -110 10 0
-6 -9 20 0
-6 -54 20 0
-6 -107 20 0
-8 -23 10 0
-8 -57 10 0
-8 -110 10 0
-9 -23 10 0
-9 -57 10 0
-9 -110 10 0
-11 -23 10 0
-11 -57 10 0
-11 -110 10 0
-12 -23 10 0
-12 -57 10 0
-12 -110 10 0
-16 -9 20 0
-16 -54 20 0
-16 -107 20 0
-23 -9 20 0
-23 -54 20 0
-23 -107 20 0
-25 -9 20 0
-25 -54 20 0
-25 -107 20 0
-27 -9 20 0
-27 -54 20 0
-27 -107 20 0
-40 -19 20 0
-40 -25 20 0
-40 -128 20 0
-54 -19 20 0
-54 -25 20 0
-54 -128 20 0
-64 -19 20 0
-64 -25 20 0
-64 -128 20 0
-73 -19 20 0
-73 -25 20 0
-73 -128 20 0
-76 -19 20 0
-76 -25 20 0
-76 -128 20 0
-83 -8 10 0
-83 -14 10 0
-83 -48 10 0
-105 -8 10 0
-105 -14 10 0
-2 -29 1 4 0
-2 -83 1 4 0
-3 -29 1 4 0
-3 -83 1 4 0
-5 -29 1 4 0
-5 -83 1 4 0
-6 -29 1 4 0
-6 -57 23 0
-6 -83 1 4 0
-6 -110 23 0
-7 -29 1 4 0
-7 -83 1 4 0
-16 -57 23 0
-16 -110 23 0
-18 -2 4 14 0
-18 -6 23 4 0
-18 -16 23 14 0
-18 -28 4 10 14 0
-18 -29 4 10 0
-18 -31 23 4 10 0
-18 -34 4 14 0
-18 -36 23 4 14 0
-18 -43 23 4 0
-18 -50 23 10 14 0
-18 -57 23 10 0
-18 -67 23 14 0
-18 -81 4 10 14 0
-18 -83 4 10 0
-18 -85 23 4 10 0
-18 -88 4 14 0
-18 -90 23 4 14 0
-18 -96 23 4 0
-18 -103 23 10 14 0
-18 -110 23 10 0
-18 -120 23 14 0
-18 -135 4 10 14 0
-18 -137 23 4 10 14 0
-18 -144 23 4 10 0
-18 -153 23 4 14 0
-18 -173 23 10 14 0
-20 -57 23 0
-20 -110 23 0
-22 -2 4 14 0
-22 -6 23 4 0
-22 -16 23 14 0
-22 -28 4 10 14 0
-22 -29 4 10 0
-22 -31 23 4 10 0
-22 -34 4 14 0
-22 -36 23 4 14 0
-13 -28 2 8 0
-13 -29 3 9 18 0
-13 -29 2 8 14 0
-13 -30 3 9 19 0
-13 -31 20 3 9 0
-13 -31 16 2 8 0
-13 -34 2 14 0
-13 -36 16 2 0
-13 -38 3 18 0
-13 -39 3 19 0
-13 -40 20 3 0
-13 -42 3 18 19 0
-13 -43 20 3 18 0
-13 -43 16 2 14 0
-13 -45 20 3 19 0
-13 -50 16 8 0
-13 -52 9 18 0
-13 -53 9 19 0
-13 -54 20 9 0
-13 -56 9 18 19 0
-13 -57 20 9 18 0
-13 -57 16 8 14 0
-13 -59 20 9 19 0
-13 -67 16 14 0
-13 -72 18 19 0
-13 -73 20 18 0
-13 -77 20 18 19 0
-13 -81 2 8 0
-13 -82 3 9 0
-13 -83 3 9 18 0
-13 -83 2 8 14 0
-13 -84 3 9 19 0
-13 -85 20 3 9 0
-13 -85 16 2 8 0
-13 -88 2 14 0
-13 -90 16 2 0
-13 -91 3 18 0
-13 -92 3 19 0
-13 -93 20 3 0
-13 -95 3 18 19 0
-13 -96 20 3 18 0
-13 -96 16 2 14 0
-13 -98 20 3 19 0
-13 -103 16 8 0
-13 -105 9 18 0
-13 -106 9 19 0
-13 -107 20 9 0
-13 -109 9 18 19 0
-13 -110 20 9 18 0
-13 -110 16 8 14 0
-15 -28 2 8 0
-15 -29 5 11 22 0
-15 -29 2 8 14 0
-15 -30 5 11 0
-15 -31 25 5 11 0
-15 -31 16 2 8 0
-15 -33 2 13 0
-15 -34 2 14 0
-15 -36 16 2 0
-15 -38 5 19 22 0
-15 -38 2 13 14 0
-15 -39 5 19 0
-15 -40 25 5 19 0
-15 -40 16 2 13 0
-15 -42 5 22 0
-15 -43 25 5 22 0
-15 -43 16 2 14 0
-15 -45 25 5 0
-15 -47 8 13 0
-15 -50 16 8 0
-15 -52 11 19 22 0
-15 -52 8 13 14 0
-15 -53 11 19 0
-15 -54 25 11 19 0
-15 -54 16 8 13 0
-15 -56 11 22 0
-15 -57 25 11 22 0
-15 -57 16 8 14 0
-15 -59 25 11 0
-15 -62 13 14 0
-15 -64 16 13 0
-15 -67 16 14 0
-15 -72 19 22 0
-15 -73 25 19 22 0
-15 -73 16 13 14 0
-15 -77 25 22 0
-15 -81 2 8 0
-15 -82 5 11 19 0
-15 -82 2 8 13 0
-15 -83 5 11 22 0
-15 -83 2 8 14 0
-15 -84 5 11 0
-15 -85 25 5 11 0
-15 -85 16 2 8 0
-15 -87 2 13 0
-15 -88 2 14 0
-15 -90 16 2 0
-15 -91 5 19 22 0
-15 -91 2 13 14 0
-15 -92 5 19 0
-17 -28 2 8 0
-17 -29 2 8 14 0
-17 -30 2 8 15 0
-17 -31 27 7 12 0
-17 -31 16 2 8 0
-17 -32 7 12 0
-17 -33 2 13 0
-17 -34 2 14 0
-17 -35 2 15 0
-17 -36 16 2 0
-17 -38 2 13 14 0
-17 -39 2 13 15 0
-17 -40 16 2 13 0
-17 -42 2 14 15 0
-17 -43 16 2 14 0
-17 -45 16 2 15 0
-17 -46 27 7 0
-17 -47 8 13 0
-17 -49 8 15 0
-17 -50 16 8 0
-17 -52 8 13 14 0
-17 -53 8 13 15 0
-17 -54 16 8 13 0
-17 -56 8 14 15 0
-17 -57 16 8 14 0
-17 -59 16 8 15 0
-17 -61 27 12 0
-17 -62 13 14 0
-17 -63 13 15 0
-17 -64 16 13 0
-17 -66 14 15 0
-17 -67 16 14 0
-17 -69 16 15 0
-17 -72 13 14 15 0
-17 -73 16 13 14 0
-17 -77 16 14 15 0
-17 -81 2 8 0
-17 -82 2 8 13 0
-17 -83 2 8 14 0
-17 -84 2 8 15 0
-17 -85 27 7 12 0
-17 -85 16 2 8 0
-17 -86 7 12 0
-17 -87 2 13 0
-17 -88 2 14 0
-17 -89 2 15 0
-17 -90 16 2 0
-17 -91 2 13 14 0
-17 -92 2 13 15 0
-17 -93 16 2 13 0
-21 -28 7 12 17 0
-21 -28 3 9 13 0
-21 -29 3 9 18 0
-21 -30 3 9 19 0
-21 -31 27 7 12 0
-21 -31 20 3 9 0
-21 -32 7 12 0
-21 -33 3 13 0
-21 -34 3 13 18 0
-21 -35 3 13 19 0
-21 -36 27 7 17 0
-21 -36 20 3 13 0
-21 -38 3 18 0
-21 -39 3 19 0
-21 -40 20 3 0
-21 -42 3 18 19 0
-21 -43 20 3 18 0
-21 -45 20 3 19 0
-21 -46 27 7 0
-21 -47 9 13 0
-21 -49 9 13 19 0
-21 -50 27 12 17 0
-21 -50 20 9 13 0
-21 -51 12 17 0
-21 -52 9 18 0
-21 -53 9 19 0
-21 -54 20 9 0
-21 -56 9 18 19 0
-21 -57 20 9 18 0
-21 -59 20 9 19 0
-21 -61 27 12 0
-21 -62 13 18 0
-21 -63 13 19 0
-21 -64 20 13 0
-21 -66 13 18 19 0
-21 -67 20 13 18 0
-21 -69 20 13 19 0
-21 -71 27 17 0
-21 -72 18 19 0
-21 -73 20 18 0
-21 -77 20 18 19 0
-21 -81 7 12 17 0
-21 -81 3 9 13 0
-21 -82 3 9 0
-21 -83 3 9 18 0
-21 -84 3 9 19 0
-21 -85 27 7 12 0
-21 -85 20 3 9 0
-21 -86 7 12 0
-21 -87 3 13 0
-24 -28 7 12 17 0
-24 -28 4 10 14 0
-24 -29 4 10 0
-24 -30 4 10 22 0
-24 -31 27 7 12 0
-24 -31 23 4 10 0
-24 -32 7 12 0
-24 -33 7 17 21 0
-24 -33 4 14 18 0
-24 -34 4 14 0
-24 -35 4 14 22 0
-24 -36 27 7 17 0
-24 -36 23 4 14 0
-24 -38 4 18 0
-24 -39 4 18 22 0
-24 -40 27 7 21 0
-24 -40 23 4 18 0
-24 -42 4 22 0
-24 -43 23 4 0
-24 -45 23 4 22 0
-24 -46 27 7 0
-24 -47 12 17 21 0
-24 -47 10 14 18 0
-24 -49 10 14 22 0
-24 -50 27 12 17 0
-24 -50 23 10 14 0
-24 -51 12 17 0
-24 -52 10 18 0
-24 -53 10 18 22 0
-24 -54 27 12 21 0
-24 -54 23 10 18 0
-24 -55 12 21 0
-24 -56 10 22 0
-24 -57 23 10 0
-24 -59 23 10 22 0
-24 -61 27 12 0
-24 -62 14 18 0
-24 -63 14 18 22 0
-24 -64 27 17 21 0
-24 -64 23 14 18 0
-24 -65 17 21 0
-24 -66 14 22 0
-24 -67 23 14 0
-24 -69 23 14 22 0
-24 -71 27 17 0
-24 -72 18 22 0
-24 -73 23 18 0
-24 -76 27 21 0
-24 -77 23 22 0
-24 -81 7 12 17 0
-26 -28 7 12 17 0
-26 -28 5 11 15 0
-26 -29 7 12 24 0
-26 -29 5 11 22 0
-26 -30 5 11 0
-26 -31 27 7 12 0
-26 -31 25 5 11 0
-26 -32 7 12 0
-26 -33 7 17 21 0
-26 -33 5 15 19 0
-26 -34 7 17 24 0
-26 -34 5 15 22 0
-26 -35 5 15 0
-26 -36 27 7 17 0
-26 -36 25 5 15 0
-26 -38 7 21 24 0
-26 -38 5 19 22 0
-26 -39 5 19 0
-26 -40 27 7 21 0
-26 -40 25 5 19 0
-26 -42 5 22 0
-26 -43 27 7 24 0
-26 -43 25 5 22 0
-26 -45 25 5 0
-26 -46 27 7 0
-26 -47 12 17 21 0
-26 -47 11 15 19 0
-26 -49 11 15 0
-26 -50 27 12 17 0
-26 -50 25 11 15 0
-26 -51 12 17 0
-26 -52 12 21 24 0
-26 -52 11 19 22 0
-26 -53 11 19 0
-26 -54 27 12 21 0
-26 -54 25 11 19 0
-26 -55 12 21 0
-26 -56 11 22 0
-26 -57 27 12 24 0
-26 -57 25 11 22 0
-26 -58 12 24 0
-26 -59 25 11 0
-26 -61 27 12 0
-26 -62 17 21 24 0
-26 -62 15 19 22 0
-26 -63 15 19 0
-26 -64 27 17 21 0
-26 -64 25 15 19 0
-26 -65 17 21 0
-26 -66 15 22 0
-28 -82 1 0
-29 -82 1 0
-29 -97 4 44 0
-30 -82 1 0
-30 -99 5 0
-31 -82 1 0
-32 -33 37 41 0
-32 -34 37 44 0
-32 -35 37 0
-32 -38 41 44 0
-32 -39 41 0
-32 -42 44 0
-32 -62 37 41 44 0
-32 -63 37 41 0
-32 -65 37 41 0
-32 -66 37 44 0
-32 -68 37 44 0
-32 -70 37 0
-32 -72 41 44 0
-32 -74 41 44 0
-32 -75 41 0
-32 -78 44 0
-32 -82 1 0
-32 -87 7 37 41 0
-32 -88 7 37 44 0
-32 -89 7 37 0
-32 -91 7 41 44 0
-32 -92 7 41 0
-32 -94 7 41 0
-32 -95 7 44 0
-32 -97 7 44 0
-32 -99 7 0
-32 -115 7 37 41 44 0
-32 -116 7 37 41 0
-32 -118 7 37 41 0
-32 -119 7 37 44 0
-32 -121 7 37 44 0
-32 -123 7 37 0
-32 -125 7 41 44 0
-32 -127 7 41 44 0
-32 -129 7 41 0
-32 -132 7 44 0
-32 -149 37 41 44 0
-32 -151 37 41 0
-32 -152 37 44 0
-32 -154 37 44 0
-32 -156 37 0
-32 -158 41 44 0
-32 -160 41 44 0
-32 -162 41 0
-2 -31 6 1 0
-2 -85 6 1 0
-3 -31 6 1 0
-3 -85 6 1 0
-4 -31 6 1 0
-4 -85 6 1 0
-5 -31 6 1 0
-5 -60 26 11 0
-5 -83 84 95 0
-5 -85 98 84 0
-5 -85 6 1 0
-5 -96 98 95 0
-5 -97 99 95 0
-5 -109 84 95 0
-5 -110 98 84 95 0
-5 -111 99 84 95 0
-5 -132 99 95 0
-5 -133 98 99 0
-5 -143 84 95 0
-5 -145 99 84 95 0
-5 -146 98 84 0
-5 -147 99 84 0
-5 -148 98 99 84 0
-5 -164 98 95 0
-5 -165 99 95 0
-5 -166 98 99 95 0
-5 -183 98 84 95 0
-5 -184 99 84 95 0
-5 -185 98 99 84 95 0
-5 -200 98 99 95 0
-7 -31 6 1 0
-7 -60 12 26 0
-7 -81 86 0
-7 -85 100 86 0
-7 -85 6 1 0
-7 -89 99 0
-7 -90 100 0
-7 -102 86 99 0
-7 -103 100 86 0
-7 -104 86 0
-7 -123 99 0
-7 -124 100 0
-7 -133 100 99 0
-7 -137 100 86 0
-7 -138 86 0
-7 -146 100 86 99 0
-7 -147 86 99 0
-7 -148 100 86 0
-7 -155 100 99 0
-7 -156 99 0
-5 -44 42 0
-5 -78 42 0
-5 -165 42 0
-23 -132 131 0
-23 -133 131 0
-23 -200 131 0
-25 -101 112 122 128 0
-25 -102 112 122 0
-25 -103 112 122 0
-25 -105 112 128 131 0
-25 -106 112 128 0
-25 -107 112 128 0
-25 -109 112 131 0
-25 -110 112 131 0
-25 -115 122 128 131 0
-25 -116 122 128 0
-25 -117 122 128 0
-25 -119 122 131 0
-25 -120 122 131 0
-25 -125 128 131 0
-25 -126 128 131 0
-25 -168 112 122 128 131 0
-25 -170 112 122 128 0
-25 -172 112 122 131 0
-25 -173 112 122 131 0
-25 -175 112 122 0
-25 -178 112 128 131 0
-25 -180 112 128 0
-25 -183 112 131 0
-25 -187 122 128 131 0
-25 -188 122 128 131 0
-25 -190 122 128 0
-25 -193 122 131 0
-25 -196 128 131 0
-27 -110 114 0
-27 -111 114 0
-27 -185 114 0
-28 -3 1 0
-29 -3 1 0
-30 -3 1 0
-30 -44 42 0
-30 -78 42 0
-30 -165 42 0
-31 -3 1 0
-32 -3 1 0
-35 -44 42 0
-35 -78 42 0
-35 -165 42 0
-39 -44 42 0
-39 -78 42 0
-26 -30 60 0
-26 -32 60 0
-26 -147 60 0
-30 -26 11 60 0
-32 -26 12 60 0
-49 -26 11 60 0
-51 -26 12 60 0
-53 -26 11 60 0
-55 -26 12 60 0
-56 -26 11 60 0
-58 -26 12 60 0
-59 -26 11 60 0
-61 -26 12 60 0
-68 -172 174 0
-68 -173 194 174 0
-68 -175 194 174 0
-68 -176 174 0
-68 -177 194 174 0
-68 -183 194 174 0
-68 -184 174 0
-68 -185 194 174 0
-68 -193 194 0
-68 -200 194 0
-70 -30 60 0
-70 -32 60 0
-70 -147 60 0
-70 -193 195 0
-70 -200 195 0
-71 -193 194 195 0
-71 -200 194 195 0
-75 -30 60 0
-75 -32 60 0
-75 -147 60 0
-78 -30 60 0
-78 -32 60 0
-78 -147 60 0
-80 -30 60 0
-80 -32 60 0
-80 -137 167 186 195 0
-80 -138 167 186 195 0
-80 -146 167 186 0
-80 -147 167 186 0
-80 -147 60 0
-80 -148 167 186 0
-80 -150 167 195 199 0
-80 -151 167 195 199 0
-80 -155 167 195 0
-80 -156 167 195 0
-80 -157 167 195 0
-80 -161 167 199 0
-1 -16 8 0
-1 -17 12 8 0
-1 -27 12 0
-1 -39 30 0
-1 -50 8 0
-1 -51 12 8 0
-1 -53 30 0
-1 -56 29 30 0
-1 -61 12 0
-1 -103 8 0
-1 -104 12 8 0
-1 -110 85 83 0
-1 -114 12 0
-1 -140 30 0
-1 -143 29 30 0
-1 -144 85 83 0
-1 -162 32 30 0
-2 -10 8 14 0
-5 -56 30 42 0
-5 -143 30 42 0
-6 -81 85 90 0
-6 -82 85 93 0
-6 -84 85 98 0
-6 -86 100 85 0
-6 -87 90 93 0
-6 -88 90 96 0
-6 -89 90 98 0
-6 -91 93 96 0
-6 -92 93 98 0
-6 -99 100 98 0
-6 -101 85 90 93 0
-6 -102 85 90 98 0
-6 -103 85 90 0
-6 -104 100 85 90 0
-6 -106 85 93 98 0
-6 -107 85 93 0
-6 -109 85 96 98 0
-6 -110 85 96 0
-6 -111 100 85 96 0
-6 -112 85 98 0
-6 -114 100 85 0
-6 -115 90 93 96 0
-6 -120 90 96 0
-6 -121 100 90 96 0
-6 -122 90 98 0
-6 -123 100 90 98 0
-6 -134 85 90 93 0
-6 -136 85 90 98 0
-6 -137 85 90 0
-6 -138 100 85 90 0
-60 -112 186 113 0
-60 -114 186 113 0
-60 -133 186 113 0
-80 -180 186 199 0
-80 -181 186 199 0
-80 -182 186 199 0
-84 -26 11 113 0
-84 -60 11 113 0
-86 -26 12 113 0
-86 -60 12 113 0
-102 -26 11 113 0
-102 -60 11 113 0
-104 -26 12 113 0
-104 -60 12 113 0
-106 -26 11 113 0
-106 -60 11 113 0
-108 -26 12 113 0
-108 -60 12 113 0
-109 -26 11 113 0
-109 -60 11 113 0
-111 -26 12 113 0
-111 -60 12 113 0
-112 -26 11 113 0
-112 -60 11 113 0
-114 -26 12 113 0
-114 -60 12 113 0
-133 -180 186 199 0
-133 -181 186 199 0
-133 -182 186 199 0
-147 -112 186 113 0
-147 -114 186 113 0
-147 -133 186 113 0
-161 -19 128 0
-161 -20 128 0
-161 -21 128 199 0
-161 -25 128 0
-161 -26 128 199 0
-161 -27 128 199 0
-161 -75 199 0
-161 -76 199 0
-161 -80 199 0
-161 -129 128 199 0
-161 -130 128 199 0
-161 -133 128 199 0
-166 -23 79 0
-166 -24 79 0
-166 -27 79 0
-167 -180 186 199 0
-167 -181 186 199 0
-167 -182 186 199 0
-54 -154 -127 -59 -121 -126 -107 -156 -35 -30 0
-24 -126 127 0
-24 -130 127 0
-24 -198 127 0
-97 -126 127 0
-97 -130 127 0
-97 -198 127 0
-111 -126 127 0
-111 -130 127 0
-111 -198 127 0
-121 -126 127 0
-121 -130 127 0
-121 -198 127 0
-132 -126 127 0
-132 -130 127 0
-132 -198 127 0
-25 -53 59 0
-25 -54 59 0
-25 -180 59 0
-30 -25 59 11 0
-30 -112 59 11 0
-31 -25 59 0
-31 -112 59 0
-45 -53 59 0
-45 -54 59 0
-45 -180 59 0
-49 -25 59 11 0
-49 -112 59 11 0
-50 -25 59 0
-50 -112 59 0
-53 -25 59 11 0
-53 -112 59 11 0
-54 -25 59 0
-54 -112 59 0
-56 -25 59 11 0
-56 -112 59 11 0
-57 -25 59 0
-57 -112 59 0
-60 -25 59 11 0
-60 -112 59 11 0
-61 -25 59 0
-61 -112 59 0
-69 -53 59 0
-69 -54 59 0
-69 -180 59 0
-77 -53 59 0
-77 -54 59 0
-77 -180 59 0
-80 -53 59 0
-80 -54 59 0
-80 -180 59 0
-2 -38 3 4 0
-2 -39 3 5 0
-2 -40 6 3 0
-2 -41 7 3 0
-2 -42 4 5 0
-2 -43 6 4 0
-2 -44 7 4 0
-2 -45 6 5 0
-2 -46 6 7 0
-2 -47 8 13 0
-2 -49 8 15 0
-2 -50 16 8 0
-2 -51 17 8 0
-2 -52 8 13 14 0
-2 -52 1 3 4 0
-2 -53 8 13 15 0
-2 -53 1 3 5 0
-2 -54 16 8 13 0
-2 -54 6 1 3 0
-2 -55 17 8 13 0
-2 -55 7 1 3 0
-2 -56 8 14 15 0
-2 -56 1 4 5 0
-2 -57 16 8 14 0
-2 -57 6 1 4 0
-2 -58 17 8 14 0
-2 -58 7 1 4 0
-2 -59 16 8 15 0
-2 -59 6 1 5 0
-2 -60 17 8 15 0
-2 -60 7 1 5 0
-2 -61 16 17 8 0
-2 -61 6 7 1 0
-2 -62 13 14 0
-2 -63 13 15 0
-2 -64 16 13 0
-2 -65 17 13 0
-2 -66 14 15 0
-2 -67 16 14 0
-2 -68 17 14 0
-2 -69 16 15 0
-2 -70 17 15 0
-2 -71 16 17 0
-2 -72 13 14 15 0
-2 -72 3 4 5 0
-2 -73 16 13 14 0
-2 -73 6 3 4 0
-2 -74 17 13 14 0
-2 -74 7 3 4 0
-2 -75 17 13 15 0
-3 -34 2 4 0
-3 -35 2 5 0
-3 -37 7 2 0
-3 -42 4 5 0
-3 -43 6 4 0
-3 -44 7 4 0
-3 -45 6 5 0
-3 -46 6 7 0
-3 -47 9 13 0
-3 -48 9 13 18 0
-3 -48 1 2 4 0
-3 -49 9 13 19 0
-3 -49 1 2 5 0
-3 -51 21 9 13 0
-3 -51 7 1 2 0
-3 -52 9 18 0
-3 -53 9 19 0
-3 -54 20 9 0
-3 -55 21 9 0
-3 -56 9 18 19 0
-3 -56 1 4 5 0
-3 -57 20 9 18 0
-3 -57 6 1 4 0
-3 -58 21 9 18 0
-3 -58 7 1 4 0
-3 -59 20 9 19 0
-3 -59 6 1 5 0
-3 -60 21 9 19 0
-3 -60 7 1 5 0
-3 -61 20 21 9 0
-3 -61 6 7 1 0
-3 -62 13 18 0
-3 -63 13 19 0
-3 -64 20 13 0
-3 -65 21 13 0
-3 -66 13 18 19 0
-3 -66 2 4 5 0
-3 -67 20 13 18 0
-3 -67 6 2 4 0
-3 -68 21 13 18 0
-3 -68 7 2 4 0
-3 -69 20 13 19 0
-3 -69 6 2 5 0
-3 -70 21 13 19 0
-3 -70 7 2 5 0
-3 -71 20 21 13 0
-3 -71 6 7 2 0
-3 -72 18 19 0
-3 -73 20 18 0
-3 -74 21 18 0
-1 -37 32 28 0
-1 -41 32 0
-1 -44 32 29 0
-1 -47 28 0
-1 -48 28 29 0
-1 -51 32 28 0
-1 -55 32 0
-1 -58 32 29 0
-1 -62 28 29 0
-1 -65 32 28 0
-1 -68 32 28 29 0
-1 -74 32 29 0
-1 -88 81 83 0
-1 -96 6 4 0
-1 -134 28 0
-1 -135 81 83 0
-1 -135 28 29 0
-1 -138 32 28 0
-1 -142 32 0
-1 -145 32 29 0
-1 -149 28 29 0
-1 -151 32 28 0
-1 -154 32 28 29 0
-1 -160 32 29 0
-1 -171 32 28 0
-1 -174 32 28 29 0
-1 -189 32 28 29 0
-2 -11 8 15 0
-2 -47 28 33 0
-2 -48 28 34 0
-2 -62 33 34 0
-2 -82 81 87 0
-2 -86 81 0
-2 -94 87 0
-2 -96 6 4 0
-2 -101 81 87 0
-2 -102 8 15 0
-2 -104 81 0
-2 -108 81 87 0
-2 -118 87 0
-2 -122 16 15 0
-2 -134 81 87 0
-2 -134 28 33 0
-2 -135 28 34 0
-2 -138 81 0
-2 -142 81 87 0
-2 -149 33 34 0
-2 -151 87 0
-2 -171 81 87 0
-2 -175 16 8 15 0
-29 -35 28 30 0
-29 -36 31 28 0
-29 -39 30 0
-29 -40 31 0
-29 -49 28 30 0
-29 -50 31 28 0
-29 -53 30 0
-29 -54 31 0
-29 -70 32 28 30 0
-29 -71 31 32 28 0
-29 -75 32 30 0
-29 -76 31 32 0
-29 -89 1 28 30 0
-29 -90 31 1 28 0
-29 -92 1 30 0
-29 -93 31 1 0
-29 -96 144 83 0
-29 -103 31 1 28 0
-29 -106 1 30 0
-29 -107 31 1 0
-29 -110 144 83 0
-29 -111 83 145 0
-29 -111 10 58 0
-29 -123 1 28 32 30 0
-29 -130 31 1 32 0
-29 -132 83 145 143 0
-29 -136 28 30 0
-29 -140 30 0
-29 -141 31 0
-29 -150 31 28 0
-29 -155 31 28 30 0
-29 -156 32 28 30 0
-29 -161 31 30 0
-29 -162 32 30 0
-29 -164 144 143 0
-29 -165 145 143 0
-29 -166 144 145 0
-29 -169 28 30 0
-29 -170 31 28 0
-29 -175 31 28 30 0
-29 -176 32 28 30 0
-29 -177 31 32 28 0
-29 -180 31 30 0
-29 -181 32 30 0
-29 -182 31 32 0
-29 -183 144 143 0
-29 -184 145 143 0
-29 -185 144 145 0
-29 -191 32 28 30 0
-29 -192 31 32 28 0
-29 -66 48 56 0
-29 -79 43 44 0
-29 -88 83 135 0
-29 -89 83 135 143 0
-29 -119 83 135 143 0
-29 -119 10 48 56 0
-29 -136 135 143 0
-29 -152 135 143 0
-30 -66 49 56 0
-30 -79 45 42 0
-30 -110 146 84 143 0
-30 -119 11 49 56 0
-30 -144 146 143 0
-31 -71 61 50 0
-31 -79 46 43 0
-31 -89 85 137 146 0
-31 -90 85 137 0
-31 -103 85 137 0
-31 -103 50 0
-31 -113 85 148 146 0
-31 -123 85 137 148 146 0
-31 -136 137 146 0
-31 -147 148 146 0
-31 -155 137 146 0
-31 -156 148 137 146 0
-31 -157 148 137 0
-31 -177 148 137 0
-31 -177 61 50 0
-31 -186 148 146 0
-31 -195 148 137 146 0
-34 -52 48 62 0
-34 -79 43 44 0
-34 -144 153 135 0
-35 -59 69 49 0
-35 -79 45 42 0
-35 -103 69 15 49 0
-36 -59 50 69 0
-36 -79 46 43 0
-36 -103 16 50 0
-36 -144 137 153 0
-38 -63 62 72 0
-38 -64 73 62 0
-38 -66 62 72 0
-38 -67 73 62 0
-38 -79 43 44 0
-38 -116 18 62 72 0
-38 -117 73 18 62 0
-38 -119 18 62 72 0
-38 -120 73 18 62 0
-38 -187 62 72 0
-52 -106 105 178 0
-52 -107 105 0
-52 -110 105 0
-52 -111 105 179 0
-52 -112 105 178 0
-52 -113 105 179 178 0
-52 -116 105 168 178 0
-52 -117 105 168 0
-52 -120 105 168 0
-52 -121 105 168 179 0
-52 -123 105 168 179 178 0
-52 -187 168 178 0
-52 -189 179 168 0
-52 -190 168 178 0
-52 -191 179 168 178 0
-52 -192 179 168 0
-52 -194 179 168 0
-53 -187 169 178 0
-53 -189 181 169 178 0
-53 -190 180 169 0
-53 -191 181 169 0
-53 -192 180 181 169 0
-53 -194 180 181 169 178 0
-54 -187 170 180 0
-54 -189 182 170 0
-54 -190 170 180 0
-54 -191 182 170 180 0
-54 -192 182 170 0
-54 -194 182 170 0
-57 -38 43 73 0
-57 -39 43 73 77 0
-57 -40 43 73 0
-57 -92 23 43 73 77 0
-57 -93 23 43 73 0
-57 -158 43 73 77 0
-57 -159 43 73 0
-57 -161 43 73 77 0
-57 -162 79 43 73 77 0
-57 -187 173 183 0
-57 -189 185 173 0
-57 -190 173 183 0
-57 -191 185 173 183 0
-57 -192 185 173 0
-57 -194 185 173 0
-58 -31 61 32 0
-58 -36 61 32 51 0
-58 -38 44 74 0
-58 -39 44 74 78 0
-58 -40 79 44 74 0
-58 -40 61 32 55 0
-38 -127 91 160 0
-60 -38 75 78 0
-60 -39 75 0
-60 -40 80 75 0
-60 -72 75 78 0
-60 -73 80 75 78 0
-60 -74 75 78 0
-60 -92 26 75 0
-60 -93 80 26 75 0
-60 -126 80 26 75 78 0
-60 -127 26 75 78 0
-60 -158 75 78 0
-60 -159 80 75 78 0
-60 -161 80 75 0
-60 -162 75 0
-60 -195 186 176 0
-60 -196 80 75 78 0
-60 -198 80 75 78 0
-61 -38 46 76 79 0
-61 -39 46 76 80 0
-61 -40 46 76 0
-61 -72 76 79 80 0
-61 -73 76 79 0
-61 -74 76 79 0
-61 -92 27 46 76 80 0
-61 -93 27 46 76 0
-61 -126 27 76 79 0
-61 -127 27 76 79 0
-61 -136 148 177 186 0
-61 -146 148 186 0
-61 -147 148 186 0
-61 -155 148 177 186 0
-61 -156 148 177 186 0
-61 -158 46 76 79 80 0
-61 -159 46 76 79 0
-61 -161 46 76 80 0
-61 -162 46 76 80 0
-61 -195 177 186 0
-61 -196 76 79 80 0
-61 -198 76 79 0
-62 -105 115 168 0
-62 -107 188 115 168 0
-62 -110 188 115 168 0
-62 -117 188 115 0
-62 -120 188 115 0
-62 -126 188 115 0
-63 -136 169 0
-63 -140 169 0
-70 -38 75 78 0
-70 -39 75 0
-52 -182 179 0
-52 -185 179 0
-52 -198 179 0
-54 -168 170 0
-54 -188 170 0
-57 -168 173 0
-57 -188 173 0
-64 -107 117 170 0
-70 -172 176 0
-70 -174 176 0
-70 -184 176 0
-71 -85 124 157 177 0
-71 -90 124 157 0
-71 -114 124 177 0
-72 -127 125 197 0
-74 -178 179 197 0
-74 -181 179 197 0
-74 -184 179 197 0
-75 -127 129 197 0
-85 -29 1 83 0
-85 -30 1 84 0
-85 -34 1 81 83 0
-85 -35 1 81 84 0
-85 -38 1 82 83 0
-85 -39 1 82 84 0
-85 -52 1 82 83 0
-85 -53 1 82 84 0
-85 -56 1 83 84 0
-85 -58 1 86 83 0
-85 -60 1 86 84 0
-85 -62 1 81 82 83 0
-85 -63 1 81 82 84 0
-85 -66 1 81 83 84 0
-85 -68 1 86 81 83 0
-85 -70 1 86 81 84 0
-85 -72 1 82 83 84 0
-85 -74 1 86 82 83 0
-85 -75 1 86 82 84 0
-85 -88 81 83 0
-85 -89 81 84 0
-85 -92 82 84 0
-85 -105 82 83 0
-85 -106 82 84 0
-85 -111 86 83 0
-85 -113 86 84 0
-85 -116 81 82 84 0
-85 -119 81 83 84 0
-85 -121 86 81 83 0
-85 -123 86 81 84 0
-85 -127 86 82 83 0
-29 -148 144 145 0
-29 -153 144 135 0
-29 -154 145 135 0
-29 -157 144 145 135 0
-29 -173 144 135 0
-29 -174 145 135 0
-29 -177 144 145 135 0
-29 -194 144 145 135 0
-31 -153 137 144 0
-31 -173 137 144 0
-57 -139 144 0
-57 -141 144 0
-57 -148 185 144 0
-57 -159 144 0
-57 -160 185 144 0
-57 -163 185 144 0
-58 -139 145 179 0
-58 -141 185 145 179 0
-58 -148 185 145 0
-58 -159 185 145 179 0
-58 -160 145 179 0
-58 -163 185 145 179 0
-61 -178 182 185 186 0
-61 -180 182 186 0
-61 -181 182 186 0
-61 -183 185 186 0
-61 -184 185 186 0
-61 -196 182 185 186 0
-61 -197 182 185 186 0
-61 -199 182 186 0
-83 -38 4 91 0
-83 -39 4 91 95 0
-83 -40 4 96 91 0
-83 -56 10 109 0
-83 -66 10 109 0
-83 -72 4 91 95 0
-83 -73 4 96 91 0
-83 -74 4 97 91 0
-83 -75 4 97 91 95 0
-83 -76 4 96 91 97 0
-83 -92 91 95 0
-83 -93 96 91 0
-83 -119 109 0
-83 -126 96 91 0
-83 -127 97 91 0
-83 -130 96 97 91 0
-83 -148 144 145 0
-83 -153 144 135 0
-83 -154 145 135 0
-83 -157 144 145 135 0
-34 -139 135 149 0
-34 -168 135 149 0
-62 -88 115 149 0
-62 -91 115 149 0
-88 -52 14 115 0
-88 -62 14 115 0
-88 -105 115 0
-88 -139 135 149 0
-88 -168 135 149 0
-88 -168 115 0
-90 -53 16 103 117 122 0
-90 -54 16 103 117 0
-90 -60 16 124 103 122 0
-90 -61 16 124 103 0
-90 -63 16 117 122 0
-90 -64 16 117 0
-90 -70 16 124 122 0
-90 -71 16 124 0
-90 -75 16 124 117 122 0
-90 -76 16 124 117 0
-90 -106 103 117 122 0
-90 -107 103 117 0
-90 -113 124 103 122 0
-90 -114 124 103 0
-90 -116 117 122 0
-90 -123 124 122 0
-90 -130 124 117 0
-90 -169 103 117 122 0
-90 -170 103 117 0
-90 -177 124 103 0
-90 -180 103 117 122 0
-90 -181 124 103 117 122 0
-90 -182 124 103 117 0
-90 -186 124 103 122 0
-90 -190 117 122 0
-90 -191 124 117 122 0
-90 -192 124 117 0
-90 -195 124 122 0
-90 -199 124 117 122 0
-91 -62 18 115 0
-91 -63 18 115 125 0
-91 -66 18 115 125 0
-91 -72 18 125 0
-91 -116 115 125 0
-91 -119 115 125 0
-91 -187 115 125 0
-92 -72 19 125 0
-92 -73 19 128 125 0
-92 -74 19 129 125 0
-92 -75 19 129 0
-54 -115 -30 -147 -123 -121 -126 -156 -31 -73 0
-8 -6 1 0
-8 -20 9 0
-8 -40 1 9 0
-8 -52 47 48 0
-8 -54 9 0
-8 -62 47 48 0
-8 -83 81 0
-8 -85 1 0
-8 -88 81 0
-8 -91 81 101 0
-8 -93 1 9 0
-8 -105 101 0
-8 -107 9 0
-8 -111 104 0
-8 -115 101 0
-8 -121 104 0
-8 -135 81 0
-8 -139 81 101 0
-8 -141 1 9 0
-8 -149 81 101 0
-8 -154 104 81 0
-10 -6 1 0
-10 -20 9 0
-10 -28 29 48 0
-10 -34 29 48 0
-10 -35 29 48 56 0
-10 -40 1 9 0
-10 -49 48 56 0
-10 -54 9 0
-10 -85 1 0
-10 -93 1 9 0
-10 -102 109 0
-10 -107 9 0
-10 -135 29 48 0
-10 -136 29 48 56 0
-10 -141 1 9 0
-10 -154 58 29 48 0
-10 -156 58 29 48 56 0
-11 -6 1 0
-11 -20 9 0
-11 -40 1 9 0
-11 -54 9 0
-11 -85 1 0
-11 -93 1 9 0
-11 -107 9 0
-11 -111 113 109 0
-11 -141 1 9 0
-14 -49 48 66 0
-14 -50 67 48 0
-14 -57 67 48 0
-28 -55 32 0
-28 -86 1 32 0
-28 -94 1 32 0
-28 -108 1 32 0
-28 -142 32 0
-29 -55 32 0
-29 -86 1 32 0
-29 -94 1 32 0
-29 -108 1 32 0
-29 -142 32 0
-30 -46 45 0
-30 -55 32 0
-30 -86 1 32 0
-30 -94 1 32 0
-30 -98 45 5 0
-30 -100 45 5 0
-30 -108 1 32 0
-30 -133 45 5 0
-30 -142 32 0
-30 -167 45 0
-31 -55 32 0
-31 -86 1 32 0
-31 -94 1 32 0
-31 -98 6 45 0
-31 -108 1 32 0
-31 -142 32 0
-33 -55 41 0
-33 -86 3 41 0
-33 -94 3 41 0
-33 -108 3 41 0
-33 -142 41 0
-35 -46 45 0
-35 -98 45 5 0
-35 -100 45 5 0
-35 -122 69 15 0
-35 -133 45 5 0
-35 -167 45 0
-36 -98 6 45 0
-36 -122 16 69 0
-38 -55 41 0
-38 -86 3 41 0
-38 -94 3 41 0
-38 -108 3 41 0
-38 -125 18 72 0
-38 -126 73 18 0
-38 -131 73 18 72 0
-38 -142 41 0
-38 -196 73 72 0
-39 -46 45 0
-39 -55 41 0
-2 -21 7 3 0
-4 -21 7 3 0
-4 -105 83 91 0
-4 -139 83 91 0
-5 -21 7 3 0
-6 -21 7 3 0
-13 -122 117 116 0
-13 -123 118 116 0
-17 -5 7 26 0
-17 -6 27 7 0
-17 -33 37 65 0
-17 -35 37 70 0
-17 -36 71 37 0
-17 -39 37 65 70 0
-17 -40 71 37 65 0
-17 -87 118 0
-17 -90 124 0
-17 -93 124 118 0
-17 -156 37 70 0
-17 -162 37 65 70 0
-18 -92 91 125 0
-18 -93 126 91 0
-18 -95 91 125 0
-18 -96 126 91 0
-18 -97 127 91 0
-18 -158 91 125 0
-18 -159 126 91 0
-18 -162 127 91 125 0
-19 -62 63 72 0
-19 -66 63 72 0
-19 -67 63 72 0
-19 -68 75 63 72 0
-19 -115 116 125 0
-19 -119 116 125 0
-19 -120 128 116 125 0
-19 -121 129 116 125 0
-19 -122 128 116 0
-19 -123 129 116 0
-20 -62 64 73 0
-20 -66 64 73 0
-20 -67 64 73 0
-20 -68 76 64 73 0
-20 -115 117 126 0
-20 -119 117 126 128 0
-20 -120 117 126 0
-20 -121 130 117 126 0
-20 -122 117 128 0
-20 -123 130 117 128 0
-21 -5 7 26 0
-21 -6 27 7 0
-4 -58 44 29 0
-4 -145 44 29 0
-5 -113 26 11 0
-7 -28 32 37 0
-7 -33 37 41 0
-7 -34 37 44 0
-7 -35 37 0
-7 -38 41 44 0
-7 -39 41 0
-7 -42 44 0
-7 -47 32 37 41 0
-7 -49 32 37 0
-7 -51 32 37 0
-7 -52 32 41 44 0
-7 -53 32 41 0
-7 -56 32 44 0
-7 -58 32 44 0
-7 -62 37 41 44 0
-7 -63 37 41 0
-7 -65 37 41 0
-7 -66 37 44 0
-7 -68 37 44 0
-7 -70 37 0
-7 -72 41 44 0
-7 -74 41 44 0
-7 -75 41 0
-7 -78 44 0
-7 -87 94 0
-7 -101 86 94 0
-7 -113 12 26 0
-7 -118 94 0
-7 -134 86 94 0
-7 -134 32 37 41 0
-7 -135 32 37 44 0
-7 -136 32 37 0
-7 -139 32 41 44 0
-7 -140 32 41 0
-7 -143 32 44 0
-7 -145 32 44 0
-7 -149 37 41 44 0
-7 -151 94 0
-7 -151 37 41 0
-7 -152 37 44 0
-7 -154 37 44 0
-7 -156 37 0
-7 -158 41 44 0
-7 -160 41 44 0
-7 -162 41 0
-7 -165 44 0
-7 -168 32 37 41 44 0
-3 -28 33 0
-3 -47 33 0
-3 -48 33 38 0
-3 -134 33 0
-3 -135 33 38 0
-4 -28 29 34 0
-4 -47 29 34 38 0
-4 -48 29 34 0
-4 -78 24 22 0
-4 -79 23 24 0
-4 -80 23 24 22 0
-4 -131 23 22 0
-4 -132 24 22 0
-4 -133 23 24 22 0
-4 -134 29 34 38 0
-4 -135 29 34 0
-4 -200 23 24 22 0
-5 -18 19 22 0
-5 -21 26 19 0
-5 -74 26 19 22 0
-5 -75 26 19 0
-5 -76 25 26 19 0
-5 -78 26 22 0
-5 -79 25 26 22 0
-5 -80 25 26 0
-5 -125 19 22 0
-5 -127 26 19 22 0
-5 -129 26 19 0
-5 -130 25 26 19 0
-5 -131 25 22 0
-5 -132 26 22 0
-5 -133 25 26 0
-5 -196 25 19 22 0
-5 -197 26 19 22 0
-5 -198 25 26 19 22 0
-5 -199 25 26 19 0
-5 -200 25 26 22 0
-7 -78 24 26 0
-7 -79 27 24 0
-7 -80 27 26 0
-7 -131 27 24 26 0
-7 -132 24 26 0
-7 -133 27 26 0
-7 -200 27 24 26 0
-10 -78 24 22 0
-10 -79 23 24 0
-10 -80 23 24 22 0
-10 -81 83 0
-10 -82 83 105 0
-10 -88 83 0
-10 -101 105 0
-10 -115 105 0
-18 -30 38 52 72 0
-18 -31 73 38 52 0
-18 -35 38 62 72 0
-18 -36 73 38 62 0
-18 -39 38 72 0
-18 -40 73 38 0
-18 -42 38 72 0
-18 -43 73 38 0
-18 -45 73 38 72 0
-18 -53 52 72 0
-18 -54 73 52 0
-18 -56 52 72 0
-18 -57 73 52 0
-18 -59 73 52 72 0
-18 -63 62 72 0
-18 -64 73 62 0
-18 -66 62 72 0
-18 -67 73 62 0
-18 -69 73 62 72 0
-18 -107 126 105 0
-18 -110 126 105 0
-18 -136 38 52 62 72 0
-18 -137 73 38 52 62 0
-18 -140 38 52 72 0
-18 -141 73 38 52 0
-18 -143 38 52 72 0
-18 -144 73 38 52 0
-18 -146 73 38 52 72 0
-18 -150 73 38 62 0
-18 -152 38 62 72 0
-18 -153 73 38 62 0
-18 -155 73 38 62 72 0
-18 -158 38 72 0
-18 -159 73 38 0
-18 -161 73 38 72 0
-18 -164 73 38 72 0
-18 -169 52 62 72 0
-18 -170 73 52 62 0
-18 -172 52 62 72 0
-18 -173 73 52 62 0
-18 -175 73 52 62 72 0
-18 -180 73 52 72 0
-18 -183 73 52 72 0
-18 -187 62 72 0
-18 -188 73 62 0
-18 -190 73 62 72 0
-18 -193 73 62 72 0
-18 -196 73 72 0
-3 -22 18 19 0
-3 -125 18 19 0
-3 -131 20 18 19 0
-3 -196 20 18 19 0
-9 -22 18 19 0
-9 -125 18 19 0
-9 -131 20 18 19 0
-9 -196 20 18 19 0
-13 -22 18 19 0
-13 -81 87 101 0
-13 -82 87 101 0
-13 -83 87 101 115 0
-13 -86 118 87 101 0
-13 -88 87 115 0
-13 -91 87 115 0
-13 -97 118 87 115 0
-13 -104 118 101 0
-13 -108 118 101 0
-13 -111 118 101 115 0
-13 -121 118 115 0
-13 -125 18 19 0
-13 -127 118 115 0
-13 -131 20 18 19 0
-13 -138 118 87 101 0
-13 -142 118 87 101 0
-13 -145 118 87 101 115 0
-13 -154 118 87 115 0
-13 -160 118 87 115 0
-13 -171 118 101 0
-13 -174 118 101 115 0
-13 -189 118 115 0
-13 -196 20 18 19 0
-21 -22 18 19 0
-21 -125 18 19 0
-21 -131 20 18 19 0
-21 -196 20 18 19 0
-22 -196 77 72 0
-39 -22 19 72 0
-39 -125 19 72 0
-39 -131 19 72 0
-39 -196 72 0
-40 -22 20 73 0
-40 -125 20 73 0
-40 -131 20 73 0
-40 -196 73 0
-42 -196 77 72 0
-43 -22 23 77 0
-43 -125 23 73 77 0
-43 -131 23 77 0
-43 -196 73 77 0
-48 -1 8 28 0
-48 -2 8 28 0
-48 -3 8 28 47 0
-48 -5 8 28 49 0
-48 -9 8 47 0
-48 -11 8 49 0
-48 -13 8 47 0
-48 -15 8 49 0
-48 -30 28 49 0
-48 -31 50 28 0
-48 -35 28 49 0
-48 -36 50 28 0
-48 -39 28 47 49 0
-48 -40 50 28 47 0
-48 -45 50 28 49 0
-48 -53 47 49 0
-48 -54 50 47 0
-48 -59 50 49 0
-48 -63 47 49 0
-48 -64 50 47 0
-48 -69 50 49 0
-48 -81 8 28 0
-48 -82 8 28 47 0
-48 -84 8 28 49 0
-48 -85 50 8 28 0
-48 -89 8 28 49 0
-48 -90 50 8 28 0
-48 -92 8 28 47 49 0
-48 -93 50 8 28 47 0
-48 -98 50 8 28 49 0
-48 -101 8 47 0
-48 -102 8 49 0
-48 -106 8 47 49 0
-48 -107 50 8 47 0
-48 -116 8 47 49 0
-48 -117 50 8 47 0
-48 -122 50 8 49 0
-48 -136 28 49 0
-48 -137 50 28 0
-48 -140 28 47 49 0
-48 -141 50 28 47 0
-48 -146 50 28 49 0
-48 -169 47 49 0
-48 -170 50 47 0
-48 -175 50 49 0
-48 -180 50 47 49 0
-51 -1 8 28 0
-51 -2 8 28 0
-51 -3 8 28 47 0
-51 -5 8 28 49 0
-52 -180 178 0
-52 -183 178 0
-81 -10 8 0
-81 -14 8 0
-81 -57 8 103 0
-81 -67 8 103 0
-81 -110 103 0
-81 -120 103 0
-81 -173 103 0
-85 -11 112 0
-85 -15 103 112 0
-85 -59 112 0
-85 -69 103 112 0
-85 -102 103 112 0
-85 -122 103 112 0
-85 -175 103 112 0
-96 -21 23 126 0
-96 -24 23 0
-96 -26 23 131 0
-96 -74 23 126 0
-96 -75 23 126 131 0
-96 -76 23 126 0
-96 -78 23 131 0
-96 -79 23 0
-96 -80 23 131 0
-96 -127 126 0
-96 -129 126 131 0
-96 -130 126 0
-96 -132 131 0
-96 -133 131 0
-96 -197 126 131 0
-96 -198 126 0
-96 -199 126 131 0
-96 -200 131 0
-98 -9 25 112 128 0
-98 -10 25 112 131 0
-98 -11 25 112 0
-98 -52 25 112 128 131 0
-98 -53 25 112 128 0
-98 -54 25 112 128 0
-98 -56 25 112 131 0
-98 -57 25 112 131 0
-98 -59 25 112 0
-98 -105 112 128 131 0
-98 -106 112 128 0
-98 -107 112 128 0
-98 -109 112 131 0
-98 -110 112 131 0
-98 -180 112 128 0
-98 -183 112 131 0
-2 -91 87 88 0
-2 -116 13 15 0
-2 -117 16 13 0
-2 -121 88 0
-2 -127 87 88 0
-2 -154 88 0
-2 -160 87 88 0
-2 -189 87 88 0
-3 -116 13 19 0
-3 -117 20 13 0
-4 -89 88 95 0
-4 -119 88 95 0
-4 -121 97 88 0
-4 -123 97 88 95 0
-4 -152 88 95 0
-4 -154 97 88 0
-4 -156 97 88 95 0
-4 -166 43 44 0
-4 -200 43 44 42 0
-8 -116 13 15 0
-8 -117 16 13 0
-9 -116 13 19 0
-9 -117 20 13 0
-12 -4 7 24 0
-12 -22 24 26 0
-12 -96 27 7 24 0
-12 -131 27 24 26 0
-12 -166 27 7 24 0
-12 -200 27 24 26 0
-14 -81 88 0
-14 -82 88 115 0
-14 -83 88 0
-14 -91 88 115 0
-14 -101 115 0
-14 -105 115 0
-14 -116 13 15 0
-14 -117 16 13 0
-14 -135 88 0
-14 -139 88 115 0
-14 -168 115 0
-17 -4 7 24 0
-17 -22 24 26 0
-17 -96 27 7 24 0
-17 -116 13 15 0
-17 -117 16 13 0
-17 -131 27 24 26 0
-17 -166 27 7 24 0
-17 -200 27 24 26 0
-18 -116 13 19 0
-18 -117 20 13 0
-1 -108 86 82 0
-1 -142 86 82 0
-3 -81 82 87 0
-3 -104 94 82 87 0
-3 -108 94 82 0
-3 -138 94 82 87 0
-3 -142 94 82 0
-3 -171 94 82 87 0
-9 -81 82 101 0
-9 -83 82 105 0
-9 -88 82 101 105 0
-9 -91 82 105 0
-65 -1 13 33 47 0
-65 -2 13 33 0
-65 -3 13 33 0
-65 -8 13 47 0
-65 -9 13 47 0
-65 -10 13 47 62 0
-65 -14 13 62 0
-65 -18 13 62 0
-65 -30 33 47 63 0
-65 -31 64 33 47 0
-65 -35 33 63 0
-65 -36 64 33 0
-65 -39 33 63 0
-65 -40 64 33 0
-65 -49 47 63 0
-65 -50 64 47 0
-65 -53 47 63 0
-65 -54 64 47 0
-65 -56 47 62 63 0
-65 -57 64 47 62 0
-65 -66 62 63 0
-65 -67 64 62 0
-65 -72 62 63 0
-65 -73 64 62 0
-65 -81 13 33 47 0
-65 -83 13 33 47 62 0
-65 -84 13 33 47 63 0
-65 -85 64 13 33 47 0
-65 -88 13 33 62 0
-65 -89 13 33 63 0
-65 -90 64 13 33 0
-65 -91 13 33 62 0
-65 -92 13 33 63 0
-65 -93 64 13 33 0
-65 -102 13 47 63 0
-65 -103 64 13 47 0
-65 -106 13 47 63 0
-65 -107 64 13 47 0
-5 -32 30 0
-5 -60 30 0
-5 -147 30 0
-28 -4 1 29 0
-28 -5 1 30 0
-28 -18 1 29 0
-28 -19 1 30 0
-28 -22 1 29 30 0
-28 -38 29 0
-28 -39 30 0
-28 -42 29 30 0
-28 -52 29 0
-28 -53 30 0
-28 -56 29 30 0
-28 -72 29 30 0
-28 -83 1 29 0
-28 -84 1 30 0
-28 -91 1 29 0
-28 -92 1 30 0
-28 -95 1 29 30 0
-28 -105 1 29 0
-28 -106 1 30 0
-28 -109 1 29 30 0
-28 -125 1 29 30 0
-28 -143 29 30 0
-28 -158 29 30 0
-28 -178 29 30 0
-31 -4 1 29 0
-31 -5 1 30 0
-31 -18 1 29 0
-31 -19 1 30 0
-31 -22 1 29 30 0
-31 -38 29 0
-31 -39 30 0
-31 -42 29 30 0
-31 -52 29 0
-31 -53 30 0
-31 -56 29 30 0
-31 -72 29 30 0
-31 -83 1 29 0
-31 -84 1 30 0
-31 -91 1 29 0
-31 -92 1 30 0
-31 -95 1 29 30 0
-31 -105 1 29 0
-31 -106 1 30 0
-31 -109 1 29 30 0
-31 -125 1 29 30 0
-31 -143 29 30 0
-31 -158 29 30 0
-146 -2 45 98 155 0
-146 -3 45 98 161 0
-146 -9 59 112 180 0
-146 -10 59 112 183 0
-146 -14 45 98 155 164 0
-146 -17 45 98 155 167 0
-146 -18 59 112 180 183 0
-146 -18 45 98 161 164 0
-146 -21 45 98 161 167 0
-146 -35 45 155 0
-146 -36 45 155 0
-146 -37 45 167 155 0
-146 -39 45 161 0
-146 -40 45 161 0
-146 -41 45 167 161 0
-146 -53 59 180 0
-146 -54 59 180 0
-146 -56 59 183 0
-146 -57 59 183 0
-146 -66 45 155 164 0
-146 -67 45 155 164 0
-146 -68 45 167 155 164 0
-146 -70 45 167 155 0
-146 -71 45 167 155 0
-146 -72 59 180 183 0
-146 -72 45 161 164 0
-146 -73 59 180 183 0
-146 -73 45 161 164 0
-146 -74 45 167 161 164 0
-146 -75 45 167 161 0
-146 -76 45 167 161 0
-146 -88 98 155 164 0
-146 -89 98 155 0
-146 -90 98 155 0
-146 -91 98 161 164 0
-146 -92 98 161 0
-146 -93 98 161 0
-146 -106 112 180 0
-146 -107 112 180 0
-146 -109 112 183 0
-146 -110 112 183 0
-146 -119 98 155 164 0
-146 -120 98 155 164 0
-146 -121 98 155 164 167 0
-146 -123 98 155 167 0
-146 -124 98 155 167 0
-146 -125 112 180 183 0
-146 -125 98 161 164 0
-146 -126 112 180 183 0
-146 -126 98 161 164 0
-169 -1 47 101 134 0
-169 -2 63 116 0
-169 -2 47 101 134 0
-169 -3 63 116 0
-169 -3 47 101 134 0
-169 -8 47 101 0
-169 -9 47 101 0
-169 -10 47 101 168 0
-169 -14 47 101 168 0
-169 -18 47 101 168 0
-169 -35 63 0
-169 -36 63 190 0
-169 -39 63 0
-169 -40 63 190 0
-169 -81 101 134 0
-169 -82 101 134 0
-169 -83 101 134 168 0
-169 -88 101 134 168 0
-169 -89 116 0
-169 -90 190 116 0
-169 -91 101 134 168 0
-169 -92 116 0
-169 -93 190 116 0
-170 -1 47 101 134 0
-170 -2 64 117 150 0
-170 -2 47 101 134 0
-170 -3 64 117 150 0
-170 -3 47 101 134 0
-170 -8 47 101 0
-170 -9 47 101 0
-170 -10 47 101 168 0
-170 -14 47 101 168 0
-170 -18 47 101 168 0
-170 -35 64 150 190 0
-170 -36 64 150 0
-170 -39 64 150 190 0
-170 -40 64 150 0
-170 -81 101 134 0
-170 -82 101 134 0
-170 -83 101 134 168 0
-170 -88 101 134 168 0
-170 -89 117 150 190 0
-170 -90 117 150 0
-170 -91 101 134 168 0
-170 -92 117 150 190 0
-170 -93 117 150 0
-171 -1 47 101 134 0
-171 -2 65 118 151 0
-171 -2 47 101 134 0
-171 -3 65 118 151 0
-175 -1 59 112 146 0
-175 -2 69 122 155 0
-175 -3 69 122 155 190 0
-175 -30 59 146 0
-175 -31 59 146 0
-175 -35 69 155 0
-175 -36 69 155 0
-175 -39 69 155 190 0
-175 -40 69 155 190 0
-175 -84 112 146 0
-175 -85 112 146 0
-175 -89 122 155 0
-175 -90 122 155 0
-175 -92 122 155 190 0
-175 -93 122 155 190 0
-180 -1 59 112 146 0
-180 -2 128 161 190 0
-180 -3 128 161 0
-180 -30 59 146 0
-180 -31 59 146 0
-180 -35 161 190 0
-180 -36 161 190 0
-180 -39 161 0
-180 -40 161 0
-180 -84 112 146 0
-180 -85 112 146 0
-180 -89 128 161 190 0
-180 -90 128 161 190 0
-180 -92 128 161 0
-180 -93 128 161 0
-183 -1 59 112 146 0
-183 -30 59 146 0
-183 -31 59 146 0
-183 -84 112 146 0
-183 -85 112 146 0
-186 -1 59 112 146 0
-186 -30 59 146 0
-186 -31 59 146 0
-186 -84 112 146 0
-186 -85 112 146 0
-192 -1 65 118 151 171 0
-192 -1 64 117 150 170 0
-192 -2 65 118 151 0
-192 -2 64 117 150 0
-192 -3 65 118 151 0
-192 -3 64 117 150 0
-192 -8 65 118 171 0
-192 -8 64 117 170 0
-192 -9 65 118 171 0
-192 -9 64 117 170 0
-54 -127 -30 -123 -121 -126 -156 -31 -136 -73 0
-15 -65 70 63 0
-15 -68 70 66 0
-15 -71 69 70 0
-15 -74 70 63 66 0
-15 -75 70 63 0
-15 -76 69 70 63 0
-15 -78 70 66 0
-15 -79 69 70 66 0
-15 -189 70 63 66 0
-15 -197 70 63 66 0
-15 -198 69 70 63 66 0
-16 -1 6 0
-16 -5 6 25 0
-16 -12 27 0
-16 -26 27 25 0
-16 -30 6 25 0
-16 -31 6 0
-16 -32 27 6 0
-16 -60 27 25 0
-16 -61 27 0
-16 -84 6 25 0
-16 -85 6 0
-16 -113 27 25 0
-16 -114 27 0
-16 -147 27 6 25 0
-16 -148 27 6 0
-20 -1 6 0
-20 -5 6 25 0
-20 -12 27 0
-20 -26 27 25 0
-20 -30 6 25 0
-20 -31 6 0
-20 -32 27 6 0
-20 -60 27 25 0
-20 -61 27 0
-20 -84 6 25 0
-20 -85 6 0
-20 -113 27 25 0
-20 -114 27 0
-20 -147 27 6 25 0
-20 -148 27 6 0
-23 -1 6 0
-23 -5 6 25 0
-23 -12 27 0
-23 -26 27 25 0
-23 -30 6 25 0
-23 -31 6 0
-23 -32 27 6 0
-23 -60 27 25 0
-23 -61 27 0
-15 -117 122 116 0
-19 -117 128 116 0
-24 -96 97 0
-24 -166 97 0
-27 -95 100 133 0
-27 -96 100 0
-27 -131 133 0
-27 -132 133 0
-27 -165 100 133 0
-27 -166 100 0
-32 -5 7 0
-32 -6 46 7 0
-32 -26 7 0
-32 -27 46 7 0
-33 -138 151 134 0
-33 -145 151 134 149 0
-33 -147 151 134 0
-33 -148 150 151 134 0
-33 -154 151 149 0
-33 -156 151 0
-33 -157 150 151 0
-33 -160 151 149 0
-33 -162 151 0
-33 -163 150 151 0
-33 -165 151 149 0
-33 -166 150 151 149 0
-33 -174 151 134 149 0
-33 -176 151 134 0
-33 -177 150 151 134 0
-33 -179 151 134 149 0
-33 -181 151 134 0
-33 -182 150 151 134 0
-33 -184 151 134 149 0
-33 -185 150 151 134 149 0
-33 -189 151 149 0
-33 -191 151 0
-33 -192 150 151 0
-33 -197 151 149 0
-33 -198 150 151 149 0
-37 -5 7 0
-37 -6 46 7 0
-37 -26 7 0
-37 -27 46 7 0
-37 -87 151 0
-37 -118 151 0
-41 -5 7 0
-41 -6 46 7 0
-41 -26 7 0
-41 -27 46 7 0
-41 -81 94 142 151 0
-47 -138 171 134 0
-47 -145 171 134 168 0
-47 -147 171 134 169 0
-47 -148 170 171 134 0
-47 -151 171 134 0
-47 -154 171 134 168 0
-47 -156 171 134 169 0
-47 -157 170 171 134 0
-47 -160 171 134 168 0
-47 -162 171 134 169 0
-47 -163 170 171 134 0
-47 -165 171 134 168 169 0
-47 -166 170 171 134 168 0
-47 -174 171 168 0
-47 -176 171 169 0
-47 -177 170 171 0
-47 -179 171 168 0
-47 -181 171 169 0
-47 -182 170 171 0
-47 -184 171 168 169 0
-47 -185 170 171 168 0
-47 -189 171 168 0
-47 -191 171 169 0
-47 -192 170 171 0
-47 -197 171 168 169 0
-47 -198 170 171 168 0
-47 -199 170 171 169 0
-55 -138 142 171 0
-55 -151 142 171 0
-68 -1 14 34 48 0
-68 -2 14 34 0
-68 -3 14 34 62 0
-68 -4 14 34 0
-68 -5 14 34 66 0
-68 -6 67 14 34 0
-68 -8 14 48 0
-68 -9 14 48 62 0
-68 -10 14 48 0
-68 -13 14 62 0
-68 -15 14 66 0
-68 -16 67 14 0
-68 -18 14 62 0
-68 -19 14 62 66 0
-68 -20 67 14 62 0
-68 -22 14 66 0
-68 -23 67 14 0
-68 -28 34 48 0
-68 -29 34 48 0
-68 -30 34 48 66 0
-68 -31 67 34 48 0
-79 -119 194 200 0
-79 -120 194 0
-79 -121 194 0
-79 -123 194 200 0
-79 -124 194 0
-79 -131 200 0
-79 -132 200 0
-79 -133 200 0
-88 -8 14 0
-88 -10 14 0
-88 -28 34 135 0
-88 -29 34 135 0
-88 -30 34 135 152 0
-88 -31 34 153 135 0
-88 -33 34 149 0
-88 -35 34 152 0
-88 -36 34 153 0
-88 -38 34 149 0
-88 -39 34 149 152 0
-88 -40 34 153 149 0
-88 -42 34 152 0
-88 -43 34 153 0
-88 -47 34 135 149 0
-88 -49 34 135 152 0
-88 -50 34 153 135 0
-88 -52 34 135 149 0
-88 -53 34 135 149 152 0
-88 -54 34 153 135 149 0
-88 -56 34 135 152 0
-88 -57 34 153 135 0
-115 -8 14 0
-115 -10 14 0
-115 -28 62 149 168 0
-115 -29 62 149 168 0
-115 -30 62 149 168 187 0
-115 -31 62 188 149 168 0
-115 -33 62 149 0
-115 -35 62 149 187 0
-115 -36 62 188 149 0
-115 -38 62 149 0
-115 -39 62 149 187 0
-115 -40 62 188 149 0
-115 -42 62 149 187 0
-115 -43 62 188 149 0
-115 -47 62 168 0
-115 -49 62 168 187 0
-115 -50 62 188 168 0
-115 -52 62 168 0
-115 -53 62 168 187 0
-115 -54 62 188 168 0
-49 -135 136 172 0
-49 -143 136 172 0
-49 -149 136 169 172 0
-49 -152 136 172 0
-49 -158 136 169 172 0
-49 -168 169 172 0
-49 -178 169 172 0
-102 -135 136 172 0
-102 -143 136 172 0
-102 -149 136 169 172 0
-102 -152 136 172 0
-102 -158 136 169 172 0
-102 -168 169 172 0
-102 -178 169 172 0
-116 -28 63 169 0
-116 -29 63 169 187 0
-116 -30 63 169 0
-116 -31 63 190 169 0
-116 -33 63 0
-116 -35 63 0
-116 -36 63 190 0
-116 -38 63 187 0
-116 -39 63 0
-116 -40 63 190 0
-116 -42 63 187 0
-116 -43 63 190 187 0
-116 -47 63 169 0
-116 -49 63 169 0
-116 -50 63 190 169 0
-116 -52 63 169 187 0
-116 -53 63 169 0
-116 -54 63 190 169 0
-116 -56 63 169 187 0
-116 -57 63 190 169 187 0
-116 -135 169 187 0
-116 -137 190 169 0
-116 -143 169 187 0
-116 -146 190 169 0
-116 -149 187 0
-116 -150 190 0
-116 -152 187 0
-116 -153 190 187 0
-116 -155 190 0
-116 -158 187 0
-116 -161 190 0
-116 -164 190 187 0
-116 -168 169 187 0
-116 -170 190 169 0
-116 -173 190 169 187 0
-116 -175 190 169 0
-4 -30 29 42 0
-4 -32 44 29 0
-4 -60 44 29 42 0
-4 -147 44 29 42 0
-4 -184 44 29 42 0
-24 -30 44 58 78 0
-24 -32 44 58 0
-24 -60 58 78 0
-24 -147 44 58 78 0
-24 -184 58 78 0
-30 -2 1 28 0
-30 -4 1 29 0
-30 -6 31 1 0
-30 -13 1 28 0
-30 -16 31 1 28 0
-30 -18 1 29 0
-30 -20 31 1 0
-30 -23 31 1 29 0
-30 -33 28 0
-30 -34 28 29 0
-30 -36 31 28 0
-30 -38 29 0
-30 -40 31 0
-30 -43 31 29 0
-30 -47 28 0
-30 -50 31 28 0
-30 -52 29 0
-30 -54 31 0
-30 -57 31 29 0
-30 -62 28 29 0
-30 -64 31 28 0
-30 -67 31 28 29 0
-30 -81 1 28 0
-30 -87 1 28 0
-30 -88 1 28 29 0
-30 -90 31 1 28 0
-30 -91 1 29 0
-30 -93 31 1 0
-30 -96 31 1 29 0
-30 -101 1 28 0
-30 -103 31 1 28 0
-30 -105 1 29 0
-30 -107 31 1 0
-30 -110 31 1 29 0
-30 -115 1 28 29 0
-30 -117 31 1 28 0
-30 -120 31 1 28 29 0
-30 -137 31 28 0
-30 -150 31 28 0
-30 -153 31 28 29 0
-8 -56 48 49 0
-14 -56 48 66 0
-15 -56 49 66 0
-20 -125 126 128 0
-20 -129 130 128 0
-20 -131 126 128 0
-20 -132 130 126 128 0
-20 -133 130 128 0
-20 -197 130 126 128 0
-20 -199 130 128 0
-20 -200 130 126 128 0
-22 -33 42 66 72 0
-22 -34 42 66 0
-22 -35 42 66 0
-22 -36 77 42 66 0
-22 -37 78 42 66 0
-22 -38 42 72 0
-22 -39 42 72 0
-22 -40 77 42 72 0
-22 -41 78 42 72 0
-22 -43 77 42 0
-22 -45 77 42 0
-22 -46 77 78 42 0
-22 -62 66 72 0
-22 -63 66 72 0
-22 -64 77 66 72 0
-22 -65 78 66 72 0
-22 -67 77 66 0
-22 -68 78 66 0
-22 -69 77 66 0
-22 -70 78 66 0
-22 -71 77 78 66 0
-22 -74 78 72 0
-22 -75 78 72 0
-22 -76 77 78 72 0
-22 -79 77 78 0
-22 -80 77 78 0
-22 -151 78 42 66 72 0
-22 -154 78 42 66 0
-22 -156 78 42 66 0
-22 -157 77 78 42 66 0
-22 -160 78 42 72 0
-22 -162 78 42 72 0
-22 -163 77 78 42 72 0
-22 -166 77 78 42 0
-22 -167 77 78 42 0
-22 -189 78 66 72 0
-22 -191 78 66 72 0
-22 -192 77 78 66 72 0
-22 -193 77 66 0
-28 -193 137 135 136 0
-29 -193 144 135 143 0
-30 -193 146 136 143 0
-31 -193 137 144 146 0
-33 -193 150 149 0
-34 -193 153 152 0
-35 -193 155 152 0
-36 -193 153 155 0
-38 -193 159 149 158 0
-39 -193 161 158 0
-40 -193 150 159 161 0
-43 -193 153 164 0
-45 -193 155 164 0
-47 -193 170 168 169 0
-50 -193 173 175 0
-52 -193 168 178 0
-53 -193 180 169 178 0
-54 -193 170 180 0
-57 -193 173 183 0
-59 -193 175 183 0
-62 -193 188 187 0
-63 -193 190 187 0
-64 -193 188 190 0
-81 -193 137 135 136 0
-83 -193 144 135 143 0
-84 -193 146 136 143 0
-85 -193 137 144 146 0
-87 -193 150 149 0
-88 -193 153 152 0
-89 -193 155 152 0
-90 -193 153 155 0
-91 -193 159 149 158 0
-92 -193 161 158 0
-93 -193 150 159 161 0
-95 -18 22 125 0
-95 -19 22 125 0
-95 -20 22 131 125 0
-95 -21 22 132 125 0
-95 -23 22 131 0
-95 -24 22 132 0
-95 -25 22 131 0
-95 -26 22 132 0
-95 -27 22 131 132 0
-95 -28 42 143 152 0
-95 -29 42 143 0
-95 -30 42 143 0
-95 -31 42 164 143 0
-95 -32 42 165 143 0
-95 -33 42 152 158 0
-95 -34 42 152 0
-102 -28 49 136 0
-102 -29 49 136 172 0
-102 -30 49 136 0
-102 -31 49 175 136 0
-102 -33 49 136 169 0
-102 -34 49 136 172 0
-102 -35 49 136 0
-102 -36 49 175 136 0
-102 -38 49 136 169 172 0
-102 -39 49 136 169 0
-102 -40 49 175 136 169 0
-102 -43 49 175 136 172 0
-102 -45 49 175 136 0
-102 -47 49 169 0
-102 -50 49 175 0
-102 -52 49 169 172 0
-102 -53 49 169 0
-102 -54 49 175 169 0
-102 -57 49 175 172 0
-102 -59 49 175 0
-102 -62 49 169 172 0
-102 -63 49 169 0
-102 -64 49 175 169 0
-102 -67 49 175 172 0
-102 -69 49 175 0
-109 -3 22 95 125 0
-109 -4 22 95 0
-109 -5 22 95 0
-109 -6 22 131 95 0
-109 -7 22 132 95 0
-109 -18 22 125 0
-109 -19 22 125 0
-109 -20 22 131 125 0
-109 -21 22 132 125 0
-109 -23 22 131 0
-109 -24 22 132 0
-109 -25 22 131 0
-109 -26 22 132 0
-109 -27 22 131 132 0
-109 -28 56 143 172 0
-109 -29 56 143 0
-109 -30 56 143 0
-109 -31 56 183 143 0
-109 -33 56 143 172 178 0
-109 -34 56 143 172 0
-109 -35 56 143 172 0
-109 -36 56 183 143 172 0
-109 -38 56 143 178 0
-109 -38 22 95 125 0
-109 -39 56 143 178 0
-174 -1 48 135 0
-174 -2 48 135 0
-174 -3 48 135 168 0
-174 -4 48 135 0
-174 -5 48 135 172 0
-174 -6 48 135 173 0
-174 -8 48 0
-174 -9 48 168 0
-174 -10 48 0
-174 -11 48 172 0
-174 -13 48 168 0
-174 -14 48 0
-174 -15 48 172 0
-174 -16 48 173 0
-174 -18 48 168 0
-174 -19 48 168 172 0
-174 -20 48 168 173 0
-174 -23 48 173 0
-174 -25 48 173 172 0
-174 -28 48 135 0
-174 -29 48 135 0
-174 -30 48 135 172 0
-174 -31 48 173 135 0
-174 -33 48 135 168 0
-174 -34 48 135 0
-174 -35 48 135 172 0
-174 -36 48 173 135 0
-174 -38 48 135 168 0
-174 -39 48 135 168 172 0
-174 -40 48 173 135 168 0
-174 -43 48 173 135 0
-174 -45 48 173 135 172 0
-174 -47 48 168 0
-174 -50 48 173 0
-174 -52 48 168 0
-174 -53 48 168 172 0
-174 -54 48 173 168 0
-174 -57 48 173 0
-174 -59 48 173 172 0
-174 -62 48 168 0
-174 -63 48 168 172 0
-174 -64 48 173 168 0
-174 -67 48 173 0
-174 -69 48 173 172 0
-174 -81 135 0
-174 -83 135 0
-174 -84 135 172 0
-174 -85 173 135 0
-174 -87 135 168 0
-174 -88 135 0
-54 -115 -154 -167 -9 -45 -59 -121 -156 -105 0
-28 -17 8 51 0
-28 -24 8 48 51 0
-28 -26 8 51 49 0
-28 -58 51 48 0
-28 -60 51 49 0
-28 -68 51 48 0
-28 -70 51 49 0
-28 -104 8 51 0
-28 -111 8 48 51 0
-28 -113 8 51 49 0
-28 -121 8 48 51 0
-28 -123 8 51 49 0
-28 -132 8 49 51 48 0
-28 -143 135 136 0
-28 -149 134 135 0
-28 -152 135 136 0
-28 -158 134 135 136 0
-28 -178 134 135 136 0
-28 -187 134 135 136 0
-29 -137 144 135 0
-29 -149 135 139 0
-29 -150 144 135 139 0
-29 -170 144 135 139 0
-31 -83 85 144 0
-31 -91 85 141 144 0
-31 -93 85 141 0
-31 -96 85 144 0
-31 -105 85 141 144 0
-31 -107 85 141 0
-31 -110 85 144 0
-32 -17 12 51 0
-32 -104 12 51 0
-34 -137 153 135 0
-43 -137 144 153 0
-43 -149 153 159 0
-43 -150 153 159 0
-43 -170 144 153 159 0
-47 -17 8 51 0
-47 -24 8 48 51 0
-47 -26 8 51 49 0
-47 -58 51 48 0
-47 -60 51 49 0
-47 -68 51 48 0
-47 -70 51 49 0
-47 -104 8 51 0
-47 -111 8 48 51 0
-47 -113 8 51 49 0
-47 -121 8 48 51 0
-47 -123 8 51 49 0
-47 -132 8 49 51 48 0
-47 -135 134 168 0
-47 -143 134 168 169 0
-47 -149 134 168 0
-47 -152 134 168 169 0
-47 -158 134 168 169 0
-47 -178 168 169 0
-47 -187 168 169 0
-52 -135 139 168 0
-52 -137 139 168 0
-52 -149 139 168 0
-52 -150 139 168 0
-52 -153 139 168 0
-52 -170 168 0
-57 -135 144 173 0
-57 -137 144 173 0
-57 -149 144 173 0
-57 -150 144 173 0
-57 -153 144 173 0
-57 -170 173 0
-62 -170 188 168 0
-67 -170 173 188 0
-67 -175 173 193 0
-67 -178 173 188 193 0
-67 -180 173 188 193 0
-67 -183 173 193 0
-67 -187 188 193 0
-67 -190 188 193 0
-69 -120 122 193 0
-69 -131 122 193 0
-89 -16 15 122 0
-89 -23 15 122 119 0
-89 -25 15 122 0
-89 -50 15 122 102 0
-89 -57 15 122 102 119 0
-89 -59 15 122 102 0
-89 -67 15 122 119 0
-89 -69 15 122 0
-89 -103 122 102 0
-89 -110 122 102 119 0
-89 -112 122 102 0
-89 -120 122 119 0
-89 -131 122 119 0
-89 -175 122 102 0
-89 -183 122 102 119 0
-101 -135 134 168 0
-101 -143 134 168 169 0
-101 -149 134 168 0
-101 -152 134 168 169 0
-101 -158 134 168 169 0
-101 -178 168 169 0
-131 -62 77 193 196 0
-131 -63 77 193 196 0
-131 -64 77 193 196 0
-131 -67 77 193 0
-131 -69 77 193 0
-131 -187 193 196 0
-131 -188 193 196 0
-131 -190 193 196 0
-132 -28 78 165 184 0
-132 -29 78 165 184 0
-132 -30 78 165 184 0
-132 -32 78 165 184 0
-132 -34 78 165 0
-132 -35 78 165 0
-132 -37 78 165 0
-132 -51 78 184 0
-132 -58 78 184 0
-132 -60 78 184 0
-132 -68 78 0
-132 -70 78 0
-132 -135 165 184 0
-132 -138 165 184 0
-132 -143 165 184 0
-132 -145 165 184 0
-132 -147 165 184 0
-132 -152 165 0
-132 -154 165 0
-132 -156 165 0
-135 -17 48 174 0
-135 -24 48 174 0
-135 -26 48 174 172 0
-135 -51 48 174 0
-135 -58 48 174 0
-135 -60 48 174 172 0
-135 -68 48 174 0
-135 -70 48 174 172 0
-135 -104 174 0
-135 -111 174 0
-135 -113 174 172 0
-135 -121 174 0
-135 -123 174 172 0
-135 -132 174 172 0
-143 -17 56 109 172 184 0
-143 -24 56 109 184 0
-143 -26 56 109 184 0
-143 -51 56 184 172 0
-143 -58 56 184 0
-143 -60 56 184 0
-143 -68 56 184 172 0
-143 -70 56 184 172 0
-24 -125 127 132 0
-24 -128 127 132 0
-24 -129 127 132 0
-24 -131 132 0
-24 -133 132 0
-24 -197 127 132 0
-24 -199 127 132 0
-24 -200 132 0
-97 -125 127 132 0
-97 -128 127 132 0
-97 -129 127 132 0
-97 -131 132 0
-97 -133 132 0
-97 -197 127 132 0
-97 -199 127 132 0
-97 -200 132 0
-111 -125 127 132 0
-111 -128 127 132 0
-111 -129 127 132 0
-111 -131 132 0
-111 -133 132 0
-111 -197 127 132 0
-111 -199 127 132 0
-111 -200 132 0
-121 -125 127 132 0
-121 -128 127 132 0
-121 -129 127 132 0
-121 -131 132 0
-121 -133 132 0
-121 -197 127 132 0
-121 -199 127 132 0
-121 -200 132 0
-125 -2 22 95 119 0
-125 -4 22 95 0
-125 -5 22 95 0
-125 -7 22 132 95 0
-125 -17 22 132 119 0
-125 -24 22 132 0
-125 -26 22 132 0
-125 -28 22 95 109 119 0
-125 -29 22 95 109 0
-125 -30 22 95 109 0
-125 -32 22 132 95 109 0
-125 -34 22 95 119 0
-125 -35 22 95 119 0
-125 -37 22 132 95 119 0
-125 -51 22 132 109 119 0
-125 -58 22 132 109 0
-125 -60 22 132 109 0
-125 -68 22 132 119 0
-15 -120 122 119 0
-15 -125 116 119 0
-15 -126 122 116 119 0
-15 -152 89 119 0
-15 -153 122 89 119 0
-15 -158 89 116 119 0
-15 -159 122 89 116 119 0
-16 -94 124 90 117 0
-16 -123 124 122 0
-16 -129 124 117 122 0
-16 -130 124 117 0
-16 -151 124 90 117 0
-16 -156 124 90 122 0
-16 -162 124 90 117 122 0
-17 -94 118 0
-17 -130 124 118 0
-17 -151 118 0
-22 -120 131 119 0
-22 -121 132 119 0
-22 -123 132 119 0
-22 -152 95 119 0
-22 -153 131 95 119 0
-22 -154 132 95 119 0
-22 -156 132 95 119 0
-24 -49 58 68 78 0
-24 -50 79 58 68 0
-24 -51 58 68 0
-24 -53 58 74 78 0
-24 -54 79 58 74 0
-24 -55 58 74 0
-24 -56 58 78 0
-24 -57 79 58 0
-36 -94 90 150 157 0
-36 -123 90 157 155 0
-36 -129 90 150 157 155 0
-36 -130 90 150 157 0
-36 -151 157 150 0
-36 -156 157 155 0
-36 -162 157 150 155 0
-40 -94 93 163 0
-40 -123 93 150 163 161 0
-40 -129 93 163 161 0
-40 -130 93 163 0
-40 -151 163 150 0
-40 -156 163 150 161 0
-40 -162 163 161 0
-44 -49 58 68 78 0
-44 -50 79 58 68 0
-44 -51 58 68 0
-44 -53 58 74 78 0
-28 -15 8 49 0
-28 -22 8 48 49 0
-28 -56 48 49 0
-28 -66 48 49 0
-28 -109 8 48 49 0
-28 -119 8 48 49 0
-28 -172 48 49 0
-30 -15 11 49 0
-47 -15 8 49 0
-47 -22 8 48 49 0
-47 -56 48 49 0
-47 -66 48 49 0
-47 -109 8 48 49 0
-47 -119 8 48 49 0
-47 -172 48 49 0
-50 -15 8 49 0
-50 -22 8 48 49 0
-50 -56 48 49 0
-50 -66 48 49 0
-50 -109 8 48 49 0
-50 -119 8 48 49 0
-50 -172 48 49 0
-51 -15 8 49 0
-51 -22 8 48 49 0
-51 -56 48 49 0
-51 -66 48 49 0
-51 -109 8 48 49 0
-51 -119 8 48 49 0
-51 -172 48 49 0
-53 -15 11 49 0
-56 -15 11 49 0
-59 -15 11 49 0
-60 -15 11 49 0
-81 -15 8 102 0
-81 -22 8 102 0
-81 -56 8 102 0
-81 -66 8 102 0
-81 -109 102 0
-81 -119 102 0
-81 -172 102 0
-84 -15 11 102 0
-101 -15 8 102 0
-101 -22 8 102 0
-101 -56 8 102 0
-101 -66 8 102 0
-101 -109 102 0
-101 -119 102 0
-101 -172 102 0
-103 -15 8 102 0
-103 -22 8 102 0
-54 -115 -167 -52 -45 -121 -156 -31 -105 -123 0
-1 -124 12 8 0
-2 -124 16 17 0
-6 -124 27 16 0
-9 -124 12 8 0
-10 -124 12 8 0
-11 -4 5 22 0
-11 -124 12 8 0
-13 -124 16 17 0
-14 -124 16 17 0
-15 -4 5 22 0
-15 -124 16 17 0
-19 -4 5 22 0
-20 -124 27 16 0
-23 -124 27 16 0
-25 -4 5 22 0
-25 -91 98 128 131 0
-25 -92 98 128 0
-25 -93 98 128 0
-25 -96 98 131 0
-25 -124 27 16 0
-25 -160 133 98 128 131 0
-25 -162 133 98 128 0
-25 -163 133 98 128 0
-25 -166 133 98 131 0
-30 -4 5 42 0
-31 -124 50 61 0
-32 -4 7 44 0
-32 -124 61 12 51 0
-35 -4 5 42 0
-36 -124 16 71 0
-37 -4 7 44 0
-37 -124 71 17 0
-39 -4 5 42 0
-41 -4 7 44 0
-45 -4 5 42 0
-45 -83 98 146 164 0
-45 -84 98 146 0
-45 -85 98 146 0
-45 -88 98 155 164 0
-45 -89 98 155 0
-45 -90 98 155 0
-45 -91 98 161 164 0
-45 -92 98 161 0
-45 -93 98 161 0
-45 -96 98 164 0
-45 -105 98 146 161 164 0
-45 -106 98 146 161 0
-45 -107 98 146 161 0
-45 -110 98 146 164 0
-45 -111 98 146 164 167 0
-18 -65 74 62 0
-18 -70 74 62 72 0
-18 -71 73 74 62 0
-18 -75 74 72 0
-18 -76 73 74 0
-18 -78 74 72 0
-18 -79 73 74 0
-18 -80 73 74 72 0
-18 -192 73 74 62 0
-18 -194 73 74 62 0
-18 -195 73 74 62 72 0
-18 -199 73 74 72 0
-18 -200 73 74 72 0
-24 -65 68 74 0
-38 -65 74 62 0
-38 -70 74 62 72 0
-38 -71 73 74 62 0
-38 -75 74 72 0
-38 -76 73 74 0
-38 -78 74 72 0
-38 -79 73 74 0
-38 -80 73 74 72 0
-38 -192 73 74 62 0
-38 -194 73 74 62 0
-38 -195 73 74 62 72 0
-38 -199 73 74 72 0
-38 -200 73 74 72 0
-44 -65 68 74 0
-45 -99 98 167 0
-45 -100 98 167 0
-45 -133 98 167 0
-52 -65 74 62 0
-52 -70 74 62 72 0
-52 -71 73 74 62 0
-52 -75 74 72 0
-52 -76 73 74 0
-52 -78 74 72 0
-52 -79 73 74 0
-52 -80 73 74 72 0
-52 -192 73 74 62 0
-52 -194 73 74 62 0
-52 -195 73 74 62 72 0
-52 -199 73 74 72 0
-52 -200 73 74 72 0
-58 -65 68 74 0
-78 -65 68 74 0
-78 -168 184 197 0
-78 -171 184 197 0
-78 -172 184 0
-78 -174 184 0
-99 -45 167 0
-99 -46 167 0
-99 -80 167 0
-100 -18 27 130 0
-100 -20 27 130 0
-100 -21 27 130 0
-100 -23 27 0
-100 -24 27 0
-100 -52 27 114 130 0
-100 -54 27 114 130 0
-100 -55 27 114 130 0
-100 -57 27 114 0
-100 -58 27 114 0
-100 -74 27 130 0
-100 -76 27 130 0
-100 -79 27 0
-100 -105 114 130 0
-100 -107 114 130 0
-100 -108 114 130 0
-100 -110 114 0
-100 -111 114 0
-100 -179 114 130 0
-100 -182 114 130 0
-100 -185 114 0
-119 -65 66 187 0
-119 -70 66 0
-119 -71 66 193 0
-119 -74 66 187 0
-119 -75 66 187 0
-119 -76 66 193 187 0
-119 -78 66 0
-119 -79 66 193 0
-119 -80 66 193 0
-119 -189 187 0
-119 -191 187 0
-119 -192 193 187 0
-119 -194 193 0
-119 -195 193 0
-119 -197 187 0
-119 -199 193 187 0
-119 -200 193 0
-121 -70 68 0
-121 -78 68 0
-124 -18 27 130 0
-124 -20 27 130 0
-124 -21 27 130 0
-124 -23 27 0
-124 -24 27 0
-124 -52 27 114 130 0
-124 -54 27 114 130 0
-27 -126 130 0
-27 -127 130 0
-27 -198 130 0
-47 -3 9 0
-47 -82 9 0
-49 -5 11 30 0
-49 -7 11 30 60 0
-49 -84 11 30 0
-49 -86 11 30 60 0
-49 -99 11 30 60 0
-50 -6 31 0
-50 -85 31 0
-51 -5 12 32 60 0
-51 -7 12 32 0
-51 -84 12 32 60 0
-51 -86 12 32 0
-51 -99 12 32 60 0
-52 -3 9 0
-52 -82 9 0
-53 -3 9 0
-53 -5 11 30 0
-53 -7 11 30 60 0
-53 -82 9 0
-53 -84 11 30 0
-53 -86 11 30 60 0
-53 -99 11 30 60 0
-54 -3 9 0
-54 -6 31 0
-54 -82 9 0
-54 -85 31 0
-55 -3 9 0
-55 -5 12 32 60 0
-55 -7 12 32 0
-55 -82 9 0
-55 -84 12 32 60 0
-55 -86 12 32 0
-55 -99 12 32 60 0
-56 -5 11 30 0
-56 -7 11 30 60 0
-56 -84 11 30 0
-56 -86 11 30 60 0
-56 -99 11 30 60 0
-57 -6 31 0
-57 -85 31 0
-58 -5 12 32 60 0
-58 -7 12 32 0
-58 -84 12 32 60 0
-58 -86 12 32 0
-58 -99 12 32 60 0
-59 -5 11 30 0
-25 -38 45 77 0
-25 -39 45 0
-25 -40 45 0
-25 -41 80 45 0
-25 -42 45 77 0
-25 -43 45 77 0
-25 -44 80 45 77 0
-25 -74 80 77 0
-25 -75 80 0
-25 -76 80 0
-25 -78 80 77 0
-25 -79 80 77 0
-25 -158 45 77 0
-25 -160 80 45 77 0
-25 -161 45 0
-25 -162 80 45 0
-25 -163 80 45 0
-25 -164 45 77 0
-25 -165 80 45 77 0
-25 -166 80 45 77 0
-25 -197 80 77 0
-25 -199 80 0
-25 -200 80 77 0
-30 -137 146 136 0
-30 -150 146 136 140 0
-30 -155 146 136 0
-30 -161 146 140 0
-30 -170 146 136 140 0
-30 -175 146 136 0
-30 -180 146 140 0
-30 -190 146 136 140 0
-31 -143 144 146 0
-31 -158 141 144 146 0
-31 -161 141 146 0
-31 -164 144 146 0
-31 -178 141 144 146 0
-31 -180 141 146 0
-31 -183 144 146 0
-59 -38 45 77 0
-59 -39 45 0
-59 -40 45 0
-59 -41 80 45 0
-59 -42 45 77 0
-59 -43 45 77 0
-59 -44 80 45 77 0
-59 -74 80 77 0
-59 -75 80 0
-59 -76 80 0
-59 -78 80 77 0
-59 -79 80 77 0
-97 -2 7 0
-97 -5 7 99 0
-97 -13 7 94 0
-97 -15 7 99 0
-97 -17 7 0
-97 -19 7 94 99 0
-97 -26 7 99 0
-97 -28 7 86 0
-97 -30 7 86 99 0
-97 -33 7 94 0
-97 -35 7 99 0
-97 -39 7 94 99 0
-97 -47 7 86 94 0
-97 -49 7 86 99 0
-97 -51 7 86 0
-97 -53 7 86 94 99 0
-97 -60 7 86 99 0
-97 -63 7 94 99 0
-97 -65 7 94 0
-97 -70 7 99 0
-97 -75 7 94 99 0
-97 -81 86 0
-97 -84 86 99 0
-97 -87 94 0
-97 -89 99 0
-97 -92 94 99 0
-97 -101 86 94 0
-97 -102 86 99 0
-97 -104 86 0
-97 -106 86 94 99 0
-97 -113 86 99 0
-97 -116 94 99 0
-97 -118 94 0
-97 -123 99 0
-97 -129 94 99 0
-97 -138 86 0
-97 -147 86 99 0
-97 -151 94 0
-97 -156 99 0
-97 -162 94 99 0
-97 -171 86 94 0
-97 -176 86 99 0
-97 -181 86 94 99 0
-97 -191 94 99 0
-100 -2 7 0
-100 -5 7 99 0
-100 -13 7 94 0
-100 -15 7 99 0
-100 -17 7 0
-100 -19 7 94 99 0
-54 -154 -57 -106 -92 -107 -156 -99 -68 -67 0
-2 -157 90 0
-5 -186 25 26 11 0
-6 -157 100 90 0
-6 -186 27 25 0
-7 -157 100 0
-7 -186 27 12 26 0
-15 -186 25 26 11 0
-16 -157 124 90 0
-16 -186 27 25 0
-17 -157 124 0
-17 -186 27 12 26 0
-19 -186 25 26 11 0
-20 -186 27 25 0
-21 -186 27 12 26 0
-22 -186 25 26 11 0
-23 -186 27 25 0
-24 -186 27 12 26 0
-29 -179 145 139 0
-30 -186 59 60 0
-31 -179 148 141 144 0
-31 -186 61 59 0
-32 -179 142 145 0
-32 -186 61 60 0
-38 -179 160 139 0
-40 -179 163 141 159 0
-41 -179 142 160 0
-43 -179 166 144 159 0
-44 -179 145 160 0
-49 -186 59 60 0
-50 -186 61 59 0
-51 -186 61 60 0
-53 -186 59 60 0
-54 -179 182 0
-54 -186 61 59 0
-55 -186 61 60 0
-56 -186 59 60 0
-57 -179 185 0
-57 -186 61 59 0
-58 -186 61 60 0
-81 -157 90 0
-83 -179 145 139 0
-84 -186 112 113 0
-85 -157 100 90 0
-85 -179 148 141 144 0
-85 -186 114 112 0
-86 -157 100 0
-86 -179 142 145 0
-86 -186 114 113 0
-87 -157 90 0
-88 -157 90 0
-54 -42 -57 -117 -165 -118 -29 -107 -156 -123 0
-8 -176 51 49 0
-8 -184 51 48 49 0
-10 -176 58 48 56 0
-10 -184 58 56 0
-11 -176 60 49 0
-11 -184 60 56 0
-14 -176 68 48 66 0
-14 -184 68 48 66 0
-15 -176 70 49 0
-15 -184 70 49 66 0
-28 -176 51 49 0
-28 -184 51 48 49 0
-29 -176 58 48 56 0
-29 -184 58 56 0
-30 -176 60 49 0
-30 -184 60 56 0
-34 -176 68 48 66 0
-34 -184 68 48 66 0
-35 -176 70 49 0
-35 -184 70 49 66 0
-45 -138 167 146 155 0
-45 -145 167 146 164 0
-45 -147 167 146 0
-45 -148 167 146 0
-45 -151 167 155 161 0
-45 -154 167 155 164 0
-45 -156 167 155 0
-45 -160 167 161 164 0
-45 -162 167 161 0
-45 -163 167 161 0
-45 -166 167 164 0
-45 -171 167 146 155 161 0
-45 -176 167 146 155 0
-45 -177 167 146 155 0
-45 -179 167 146 161 164 0
-45 -181 167 146 161 0
-45 -182 167 146 161 0
-45 -184 167 146 164 0
-45 -185 167 146 164 0
-45 -186 167 146 0
-45 -194 167 155 164 0
-47 -176 51 49 0
-47 -184 51 48 49 0
-50 -176 51 49 0
-50 -184 51 48 49 0
-52 -176 58 48 56 0
-52 -184 58 56 0
-53 -176 60 49 0
-53 -184 60 56 0
-57 -176 58 48 56 0
-4 -9 1 3 0
-4 -11 1 5 0
-4 -12 7 1 0
-4 -20 6 3 0
-4 -27 6 7 0
-4 -35 2 5 0
-4 -36 6 2 0
-4 -37 7 2 0
-4 -39 3 5 0
-4 -40 6 3 0
-4 -41 7 3 0
-4 -45 6 5 0
-4 -46 6 7 0
-4 -47 1 2 3 0
-4 -49 1 2 5 0
-4 -50 6 1 2 0
-4 -51 7 1 2 0
-4 -53 1 3 5 0
-4 -54 6 1 3 0
-4 -55 7 1 3 0
-4 -59 6 1 5 0
-4 -61 6 7 1 0
-4 -63 2 3 5 0
-4 -64 6 2 3 0
-4 -69 6 2 5 0
-4 -70 7 2 5 0
-4 -71 6 7 2 0
-4 -75 7 3 5 0
-4 -76 6 7 3 0
-4 -80 6 7 5 0
-4 -86 7 1 0
-4 -94 7 3 0
-4 -99 7 5 0
-4 -100 6 7 0
-4 -101 1 2 3 0
-4 -102 1 2 5 0
-4 -103 6 1 2 0
-4 -104 7 1 2 0
-4 -106 1 3 5 0
-4 -107 6 1 3 0
-4 -108 7 1 3 0
-4 -112 6 1 5 0
-4 -113 7 1 5 0
-4 -114 6 7 1 0
-4 -118 7 2 3 0
-4 -123 7 2 5 0
-4 -130 6 7 3 0
-4 -133 6 7 5 0
-4 -136 1 2 5 0
-4 -137 6 1 2 0
-9 -102 101 106 0
-9 -109 105 106 0
-9 -116 101 106 0
-9 -119 101 105 106 0
-9 -169 101 106 0
-9 -172 101 105 106 0
-9 -187 101 105 106 0
-53 -109 106 178 0
-62 -1 18 38 52 0
-62 -3 18 38 0
-62 -4 18 38 0
-62 -5 18 38 72 0
-62 -7 18 38 74 0
-62 -9 18 52 0
-62 -10 18 52 0
-62 -11 18 52 72 0
-62 -12 18 52 74 0
-62 -30 38 52 72 0
-62 -31 73 38 52 0
-62 -32 74 38 52 0
-62 -39 38 72 0
-62 -40 73 38 0
-62 -41 74 38 0
-62 -42 38 72 0
-62 -43 73 38 0
-62 -44 74 38 0
-62 -45 73 38 72 0
-62 -46 73 74 38 0
-62 -53 52 72 0
-62 -54 73 52 0
-62 -55 74 52 0
-62 -56 52 72 0
-62 -57 73 52 0
-62 -58 74 52 0
-62 -59 73 52 72 0
-62 -61 73 74 52 0
-62 -82 18 38 52 0
-62 -83 18 38 52 0
-62 -84 18 38 52 72 0
-62 -85 73 18 38 52 0
-62 -86 18 38 52 74 0
-62 -92 18 38 72 0
-62 -93 73 18 38 0
-62 -94 18 38 74 0
-62 -95 18 38 72 0
-62 -96 73 18 38 0
-62 -97 18 38 74 0
-62 -98 73 18 38 72 0
-62 -99 18 38 74 72 0
-62 -100 73 18 38 74 0
-3 -95 91 92 0
-3 -158 91 92 0
-39 -87 92 0
-39 -89 92 0
-39 -116 92 0
-82 -95 91 92 0
-82 -158 91 92 0
-87 -95 91 92 0
-87 -158 91 92 0
-93 -95 91 92 0
-93 -158 91 92 0
-94 -95 91 92 0
-94 -158 91 92 0
-106 -3 19 92 0
-106 -4 19 92 125 0
-106 -5 19 92 0
-106 -7 19 129 92 0
-106 -39 19 92 0
-106 -40 19 128 92 0
-106 -41 19 129 92 0
-106 -42 19 92 125 0
-106 -43 19 128 92 125 0
-106 -44 19 129 92 125 0
-106 -45 19 128 92 0
-106 -46 19 128 92 129 0
-106 -93 128 92 0
-106 -94 129 92 0
-106 -95 92 125 0
-106 -96 128 92 125 0
-106 -97 129 92 125 0
-106 -98 128 92 0
-106 -99 129 92 0
-106 -100 128 129 92 0
-106 -158 92 125 0
-106 -159 128 92 125 0
-106 -160 129 92 125 0
-106 -161 128 92 0
-106 -162 129 92 0
-106 -163 128 129 92 0
-106 -164 128 92 125 0
-106 -165 129 92 125 0
-106 -166 128 129 92 125 0
-106 -167 128 129 92 0
-116 -3 19 92 0
-116 -4 19 92 125 0
-116 -5 19 92 0
-116 -7 19 129 92 0
-116 -39 19 92 0
-116 -40 19 128 92 0
-116 -41 19 129 92 0
-16 -19 13 15 0
-16 -34 2 14 0
-16 -35 2 15 0
-16 -37 17 2 0
-16 -38 2 13 14 0
-16 -39 2 13 15 0
-16 -41 17 2 13 0
-16 -42 2 14 15 0
-16 -44 17 2 14 0
-16 -47 8 13 0
-16 -49 8 15 0
-16 -51 17 8 0
-16 -52 8 13 14 0
-16 -53 8 13 15 0
-16 -55 17 8 13 0
-16 -56 8 14 15 0
-16 -58 17 8 14 0
-16 -62 13 14 0
-16 -63 13 15 0
-16 -65 17 13 0
-16 -66 14 15 0
-16 -68 17 14 0
-16 -70 17 15 0
-16 -72 13 14 15 0
-16 -74 17 13 14 0
-16 -75 17 13 15 0
-16 -78 17 14 15 0
-16 -83 2 8 14 0
-16 -89 2 15 0
-16 -91 2 13 14 0
-16 -92 2 13 15 0
-16 -94 17 2 13 0
-16 -95 2 14 15 0
-16 -101 8 13 0
-16 -102 8 15 0
-16 -104 17 8 0
-16 -105 8 13 14 0
-16 -106 8 13 15 0
-16 -108 17 8 13 0
-16 -109 8 14 15 0
-16 -111 17 8 14 0
-16 -113 17 8 15 0
-16 -115 13 14 0
-16 -116 13 15 0
-16 -118 17 13 0
-16 -119 14 15 0
-16 -121 17 14 0
-16 -123 17 15 0
-16 -125 13 14 15 0
-16 -127 17 13 14 0
-19 -34 5 15 22 0
-19 -34 3 13 18 0
-19 -35 5 15 0
-19 -37 26 5 15 0
-19 -37 21 3 13 0
-19 -38 3 18 0
-19 -41 21 3 0
-19 -42 5 22 0
-19 -44 26 5 22 0
-19 -44 21 3 18 0
-19 -47 9 13 0
-19 -49 11 15 0
-19 -51 26 11 15 0
-19 -51 21 9 13 0
-19 -52 9 18 0
-19 -55 21 9 0
-19 -56 11 22 0
-19 -58 26 11 22 0
-19 -58 21 9 18 0
-19 -62 13 18 0
-19 -65 21 13 0
-19 -66 15 22 0
-19 -68 26 15 22 0
-19 -68 21 13 18 0
-19 -70 26 15 0
-19 -74 21 18 0
-19 -78 26 22 0
-19 -83 5 11 22 0
-19 -83 3 9 18 0
-19 -89 5 15 0
-19 -91 3 18 0
-19 -94 21 3 0
-19 -95 5 22 0
-19 -101 9 13 0
-19 -102 11 15 0
-19 -104 26 11 15 0
-19 -104 21 9 13 0
-19 -105 9 18 0
-19 -108 21 9 0
-19 -109 11 22 0
-19 -111 26 11 22 0
-19 -111 21 9 18 0
-19 -113 26 11 0
-19 -115 13 18 0
-19 -118 21 13 0
-19 -119 15 22 0
-19 -121 26 15 22 0
-19 -121 21 13 18 0
-19 -123 26 15 0
-19 -127 21 18 0
-20 -34 3 13 18 0
-20 -35 3 13 19 0
-20 -36 6 16 0
-20 -37 21 3 13 0
-20 -38 3 18 0
-20 -39 3 19 0
-20 -41 21 3 0
-20 -42 3 18 19 0
-20 -44 21 3 18 0
-20 -47 9 13 0
-20 -49 9 13 19 0
-20 -50 16 0
-20 -51 21 9 13 0
-20 -52 9 18 0
-20 -53 9 19 0
-20 -55 21 9 0
-20 -56 9 18 19 0
-20 -58 21 9 18 0
-20 -62 13 18 0
-20 -63 13 19 0
-20 -65 21 13 0
-20 -66 13 18 19 0
-20 -68 21 13 18 0
-20 -70 21 13 19 0
-20 -72 18 19 0
-20 -74 21 18 0
-20 -75 21 19 0
-20 -78 21 18 19 0
-20 -83 3 9 18 0
-20 -89 3 13 19 0
-20 -91 3 18 0
-20 -92 3 19 0
-20 -94 21 3 0
-20 -95 3 18 19 0
-20 -101 9 13 0
-20 -102 9 13 19 0
-20 -103 16 0
-20 -104 21 9 13 0
-20 -105 9 18 0
-20 -106 9 19 0
-20 -108 21 9 0
-20 -109 9 18 19 0
-20 -111 21 9 18 0
-20 -113 21 9 19 0
-20 -115 13 18 0
-20 -116 13 19 0
-20 -118 21 13 0
-20 -119 13 18 19 0
-20 -121 21 13 18 0
-20 -123 21 13 19 0
-13 -48 8 14 0
-15 -48 8 14 0
-16 -48 8 14 0
-17 -48 8 14 0
-18 -48 10 14 0
-22 -48 10 14 0
-23 -48 10 14 0
-24 -48 10 14 0
-33 -48 28 34 0
-35 -48 28 34 0
-36 -48 28 34 0
-37 -48 28 34 0
-38 -48 29 34 0
-42 -48 29 34 0
-43 -48 29 34 0
-44 -48 29 34 0
-91 -13 3 87 0
-91 -15 3 87 92 0
-91 -16 4 96 88 0
-91 -16 3 93 87 0
-91 -17 4 97 88 0
-91 -19 3 92 0
-91 -20 3 93 0
-91 -23 4 96 0
-91 -24 4 97 0
-91 -25 3 93 92 0
-91 -27 4 96 97 0
-91 -33 3 87 0
-91 -35 3 87 92 0
-91 -36 4 96 88 0
-91 -36 3 93 87 0
-91 -37 4 97 88 0
-91 -39 3 92 0
-91 -40 3 93 0
-91 -43 4 96 0
-91 -44 4 97 0
-91 -45 3 93 92 0
-91 -46 4 96 97 0
-91 -47 3 82 87 0
-91 -48 4 83 88 0
-91 -49 3 82 87 92 0
-91 -50 4 96 83 88 0
-91 -50 3 93 82 87 0
-91 -51 4 97 83 88 0
-91 -53 3 82 92 0
-91 -54 3 93 82 0
-91 -57 4 96 83 0
-91 -58 4 97 83 0
-91 -59 3 93 82 92 0
-91 -61 4 96 83 97 0
-95 -13 5 89 92 0
-95 -13 4 88 91 0
-95 -15 5 89 0
-95 -16 4 96 88 0
-95 -17 5 99 89 0
-95 -17 4 97 88 0
-95 -18 4 91 0
-95 -19 5 92 0
-95 -20 4 96 91 0
-95 -21 5 99 92 0
-95 -21 4 97 91 0
-95 -23 4 96 0
-95 -24 4 97 0
-95 -27 4 96 97 0
-95 -33 5 89 92 0
-95 -33 4 88 91 0
-95 -35 5 89 0
-95 -36 4 96 88 0
-95 -37 5 99 89 0
-95 -37 4 97 88 0
-95 -38 4 91 0
-95 -39 5 92 0
-95 -40 4 96 91 0
-95 -41 5 99 92 0
-95 -41 4 97 91 0
-95 -43 4 96 0
-95 -44 4 97 0
-95 -46 4 96 97 0
-95 -47 5 84 89 92 0
-95 -47 4 83 88 91 0
-95 -49 5 84 89 0
-95 -50 4 96 83 88 0
-95 -51 5 99 84 89 0
-95 -51 4 97 83 88 0
-95 -52 4 83 91 0
-95 -53 5 84 92 0
-95 -54 4 96 83 91 0
-95 -55 5 99 84 92 0
-95 -55 4 97 83 91 0
-95 -57 4 96 83 0
-95 -58 4 97 83 0
-95 -61 4 96 83 97 0
-95 -62 4 88 91 0
-95 -63 5 89 92 0
-95 -64 4 96 88 91 0
-95 -65 5 99 89 92 0
-95 -65 4 97 88 91 0
-95 -67 4 96 88 0
-95 -68 4 97 88 0
-95 -70 5 99 89 0
-98 -13 6 90 93 0
-98 -13 5 89 92 0
-98 -15 5 89 0
-98 -16 6 90 0
-98 -17 6 100 90 0
-98 -17 5 99 89 0
-98 -18 6 93 96 0
-98 -18 5 92 95 0
-98 -19 5 92 0
-98 -20 6 93 0
-98 -21 6 100 93 0
-98 -21 5 99 92 0
-98 -22 5 95 0
-98 -23 6 96 0
-98 -24 6 100 96 0
-98 -24 5 99 95 0
-98 -27 6 100 0
-98 -33 6 90 93 0
-98 -33 5 89 92 0
-98 -35 5 89 0
-98 -36 6 90 0
-98 -37 6 100 90 0
-98 -37 5 99 89 0
-98 -38 6 93 96 0
-98 -38 5 92 95 0
-98 -39 5 92 0
-98 -40 6 93 0
-98 -41 6 100 93 0
-98 -41 5 99 92 0
-98 -42 5 95 0
-98 -43 6 96 0
-98 -44 6 100 96 0
-98 -44 5 99 95 0
-98 -46 6 100 0
-98 -47 6 85 90 93 0
-98 -47 5 84 89 92 0
-98 -49 5 84 89 0
-98 -50 6 85 90 0
-98 -51 6 100 85 90 0
-98 -51 5 99 84 89 0
-98 -52 6 85 93 96 0
-98 -52 5 84 92 95 0
-98 -53 5 84 92 0
-98 -54 6 85 93 0
-98 -55 6 100 85 93 0
-98 -55 5 99 84 92 0
-98 -56 5 84 95 0
-98 -57 6 85 96 0
-98 -58 6 100 85 96 0
-98 -58 5 99 84 95 0
-54 -154 -23 -180 -20 -121 -156 -140 -24 -136 0
-4 -131 96 95 0
-4 -132 97 95 0
-4 -164 96 95 0
-4 -165 97 95 0
-4 -200 96 97 95 0
-13 -37 65 33 0
-13 -41 65 33 0
-13 -51 65 47 0
-13 -55 65 47 0
-13 -138 65 33 47 0
-13 -151 65 33 0
-13 -171 65 47 0
-19 -130 128 129 0
-19 -199 128 129 0
-20 -92 93 128 0
-37 -13 17 65 0
-37 -118 17 65 0
-40 -87 93 150 0
-40 -89 93 150 161 0
-40 -90 93 150 0
-40 -92 93 161 0
-40 -116 93 150 161 0
-40 -117 93 150 0
-40 -122 93 150 161 0
-41 -13 21 65 0
-41 -118 21 65 0
-51 -13 17 65 0
-51 -118 17 65 0
-55 -13 21 65 0
-55 -118 21 65 0
-62 -37 65 33 0
-62 -41 65 33 0
-62 -51 65 47 0
-62 -55 65 47 0
-62 -138 65 33 47 0
-62 -151 65 33 0
-62 -171 65 47 0
-63 -37 65 33 0
-63 -41 65 33 0
-63 -51 65 47 0
-63 -55 65 47 0
-63 -138 65 33 47 0
-63 -151 65 33 0
-63 -171 65 47 0
-64 -37 65 33 0
-64 -41 65 33 0
-64 -51 65 47 0
-64 -55 65 47 0
-64 -138 65 33 47 0
-64 -151 65 33 0
-44 -96 166 97 0
-79 -96 166 0
-82 -37 142 134 0
-82 -41 142 0
-82 -51 142 134 0
-82 -55 142 0
-82 -65 142 134 0
-82 -138 142 134 0
-82 -151 142 134 0
-82 -171 142 134 0
-87 -35 33 0
-87 -36 33 150 0
-87 -39 33 0
-87 -40 33 150 0
-87 -49 33 134 0
-87 -50 33 150 134 0
-87 -53 33 134 0
-87 -54 33 150 134 0
-87 -63 33 0
-87 -64 33 150 0
-87 -136 134 0
-87 -137 150 134 0
-87 -140 134 0
-87 -141 150 134 0
-87 -169 134 0
-87 -170 150 134 0
-94 -2 7 0
-94 -4 7 97 0
-94 -8 7 86 0
-94 -10 7 86 97 0
-94 -14 7 97 0
-94 -15 7 99 0
-94 -16 7 100 0
-94 -19 21 129 0
-94 -20 21 130 0
-94 -22 7 97 99 0
-94 -23 7 100 97 0
-94 -34 7 97 0
-94 -35 7 99 0
-94 -36 7 100 0
-94 -37 7 0
-94 -42 7 97 99 0
-94 -43 7 100 97 0
-94 -44 7 97 0
-94 -48 7 86 97 0
-94 -49 7 86 99 0
-94 -50 7 100 86 0
-94 -51 7 86 0
-94 -56 7 86 97 99 0
-94 -57 7 100 86 97 0
-8 -33 28 47 0
-8 -134 28 47 0
-9 -33 47 0
-9 -134 47 0
-48 -33 28 47 0
-48 -134 28 47 0
-49 -33 28 47 0
-49 -134 28 47 0
-50 -33 28 47 0
-50 -134 28 47 0
-51 -33 28 47 0
-51 -134 28 47 0
-52 -33 47 0
-52 -134 47 0
-53 -33 47 0
-53 -134 47 0
-54 -33 47 0
-54 -134 47 0
-55 -33 47 0
-55 -134 47 0
-104 -2 17 0
-104 -16 17 124 0
-104 -36 17 124 0
-104 -37 17 0
-104 -71 17 124 0
-104 -90 124 0
-104 -157 124 0
-108 -3 21 94 0
-108 -19 21 129 0
-108 -20 21 130 0
-108 -39 21 94 129 0
-108 -40 21 130 94 0
-108 -41 21 94 0
-108 -75 21 129 0
-108 -76 21 130 0
-108 -92 94 129 0
-108 -93 130 94 0
-108 -162 94 129 0
-108 -163 130 94 0
-111 -4 24 97 0
-111 -23 24 0
-111 -43 24 97 0
-111 -44 24 97 0
-111 -79 24 0
-111 -96 97 0
-111 -166 97 0
-118 -2 17 0
-118 -3 21 94 0
-118 -16 17 124 0
-118 -19 21 129 0
-8 -25 11 0
-8 -27 12 0
-8 -45 1 11 0
-8 -46 12 1 0
-8 -59 11 0
-8 -61 12 0
-8 -112 11 0
-8 -114 12 0
-8 -133 12 11 0
-8 -146 1 11 0
-8 -167 12 1 11 0
-8 -186 12 11 0
-9 -25 11 0
-9 -27 12 0
-9 -45 1 11 0
-9 -46 12 1 0
-9 -59 11 0
-9 -61 12 0
-9 -112 11 0
-9 -114 12 0
-9 -133 12 11 0
-9 -146 1 11 0
-9 -167 12 1 11 0
-9 -186 12 11 0
-10 -25 11 0
-10 -27 12 0
-10 -45 1 11 0
-10 -46 12 1 0
-10 -59 11 0
-10 -61 12 0
-10 -112 11 0
-10 -114 12 0
-10 -133 12 11 0
-10 -146 1 11 0
-10 -167 12 1 11 0
-10 -186 12 11 0
-13 -119 115 116 0
-13 -120 117 115 0
-13 -125 115 116 0
-13 -126 117 115 0
-13 -131 117 115 116 0
-13 -149 87 115 0
-13 -152 87 115 116 0
-13 -153 117 87 115 0
-13 -158 87 115 116 0
-13 -159 117 87 115 0
-13 -164 117 87 115 116 0
-13 -187 115 116 0
-13 -188 117 115 0
-13 -193 117 115 116 0
-4 -120 96 88 0
-4 -153 96 88 0
-12 -102 104 113 0
-12 -123 104 113 0
-12 -176 104 113 0
-23 -97 96 0
-23 -100 96 0
-43 -97 96 166 0
-43 -100 96 166 0
-46 -144 148 166 0
-46 -145 148 166 0
-46 -185 148 166 0
-79 -97 166 0
-79 -100 166 0
-83 -120 96 88 0
-83 -153 96 88 0
-86 -45 32 148 147 0
-86 -46 32 148 0
-86 -59 32 148 147 0
-86 -61 32 148 0
-86 -80 32 148 147 0
-86 -102 104 113 0
-86 -123 104 113 0
-86 -146 148 147 0
-86 -167 148 147 0
-86 -176 104 113 0
-86 -186 148 147 0
-91 -120 96 88 0
-91 -153 96 88 0
-95 -120 96 88 0
-95 -153 96 88 0
-97 -120 96 88 0
-97 -153 96 88 0
-100 -3 6 93 0
-100 -4 6 96 0
-100 -5 6 98 0
-100 -9 6 85 93 0
-100 -10 6 85 96 0
-100 -11 6 85 98 0
-100 -18 6 93 96 0
-100 -19 6 93 98 0
-100 -20 6 93 0
-100 -22 6 96 98 0
-100 -23 6 96 0
-100 -25 6 98 0
-100 -33 6 90 93 0
-100 -34 6 90 96 0
-100 -35 6 90 98 0
-100 -38 6 93 96 0
-100 -39 6 93 98 0
-96 -3 6 93 0
-96 -5 6 98 0
-96 -9 6 85 93 0
-96 -11 6 85 98 0
-96 -19 6 93 98 0
-96 -20 6 93 0
-96 -21 6 100 93 0
-96 -25 6 98 0
-96 -26 6 100 98 0
-96 -33 6 90 93 0
-96 -35 6 90 98 0
-96 -39 6 93 98 0
-96 -40 6 93 0
-96 -45 6 98 0
-96 -47 6 85 90 93 0
-96 -49 6 85 90 98 0
-96 -53 6 85 93 98 0
-96 -54 6 85 93 0
-96 -59 6 85 98 0
-96 -63 6 90 93 98 0
-96 -64 6 90 93 0
-96 -65 6 100 90 93 0
-96 -69 6 90 98 0
-96 -70 6 100 90 98 0
-96 -75 6 100 93 98 0
-96 -76 6 100 93 0
-96 -80 6 100 98 0
-96 -82 85 93 0
-96 -84 85 98 0
-96 -94 100 93 0
-96 -99 100 98 0
-96 -101 85 90 93 0
-96 -102 85 90 98 0
-96 -106 85 93 98 0
-96 -107 85 93 0
-96 -108 100 85 93 0
-96 -112 85 98 0
-96 -113 100 85 98 0
-96 -118 100 90 93 0
-96 -123 100 90 98 0
-96 -129 100 93 98 0
-96 -130 100 93 0
-96 -133 100 98 0
-96 -134 85 90 93 0
-96 -136 85 90 98 0
-96 -140 85 93 98 0
-96 -141 85 93 0
-96 -146 85 98 0
-96 -151 100 90 93 0
-96 -156 100 90 98 0
-27 -120 124 0
-27 -121 124 0
-27 -153 100 124 0
-27 -154 100 124 0
-41 -108 94 142 0
-46 -120 100 157 166 0
-46 -121 100 157 166 0
-46 -153 157 166 0
-46 -154 157 166 0
-114 -120 124 0
-114 -121 124 0
-114 -153 100 124 0
-114 -154 100 124 0
-117 -47 64 170 0
-117 -49 64 170 190 0
-117 -50 64 170 0
-117 -51 64 192 170 0
-117 -52 64 170 188 0
-117 -53 64 170 190 0
-117 -54 64 170 0
-117 -55 64 192 170 0
-117 -56 64 170 188 190 0
-117 -57 64 170 188 0
-117 -58 64 192 170 188 0
-117 -59 64 170 190 0
-117 -61 64 192 170 0
-117 -171 192 170 0
-117 -176 192 170 190 0
-117 -177 192 170 0
-117 -179 192 170 188 0
-117 -181 192 170 190 0
-117 -182 192 170 0
-117 -184 192 170 188 190 0
-117 -185 192 170 188 0
-117 -186 192 170 190 0
-120 -13 14 115 0
-120 -15 14 119 0
-120 -18 14 115 0
-120 -19 14 115 119 0
-120 -22 14 119 0
-120 -33 14 88 115 0
-120 -35 14 88 119 0
-120 -38 14 88 115 0
-120 -39 14 88 115 119 0
-120 -42 14 88 119 0
-120 -47 67 173 188 0
-120 -47 14 115 0
-120 -49 67 173 193 0
-120 -49 14 119 0
-120 -50 67 173 0
-122 -22 25 131 0
-122 -23 25 131 0
-122 -24 25 133 131 0
-122 -42 25 98 131 0
-122 -43 25 98 131 0
-122 -44 25 133 98 131 0
-122 -49 69 175 0
-122 -50 69 175 0
-122 -51 69 195 175 0
-122 -53 69 175 190 0
-122 -54 69 175 190 0
-122 -55 69 195 175 190 0
-122 -56 69 175 193 0
-122 -56 25 112 131 0
-122 -57 69 175 193 0
-122 -57 25 112 131 0
-122 -58 69 195 175 193 0
-122 -58 25 133 112 131 0
-122 -66 69 193 0
-122 -67 69 193 0
-122 -68 69 195 193 0
-122 -72 69 190 193 0
-122 -73 69 190 193 0
-122 -74 69 195 190 193 0
-122 -109 112 131 0
-122 -110 112 131 0
-122 -111 133 112 131 0
-122 -143 98 112 131 0
-122 -144 98 112 131 0
-122 -145 133 98 112 131 0
-123 -22 26 132 0
-123 -23 26 133 132 0
-123 -24 26 132 0
-123 -42 26 99 132 0
-123 -43 26 133 99 132 0
-123 -44 26 99 132 0
-123 -49 70 176 0
-123 -50 70 195 176 0
-123 -51 70 176 0
-123 -53 70 176 191 0
-123 -54 70 195 176 191 0
-123 -55 70 176 191 0
-123 -56 70 176 0
-123 -56 26 113 132 0
-123 -57 70 195 176 0
-123 -57 26 133 113 132 0
-123 -58 70 176 0
-123 -58 26 113 132 0
-123 -66 70 0
-123 -67 70 195 0
-101 -21 9 108 0
-101 -41 9 108 82 0
-101 -55 9 108 0
-104 -19 12 108 113 0
-104 -21 12 108 0
-104 -39 12 86 108 113 0
-104 -41 12 86 108 0
-104 -53 12 108 113 0
-104 -55 12 108 0
-104 -75 12 108 113 0
-104 -106 108 113 0
-104 -129 108 113 0
-104 -140 86 108 113 0
-104 -162 86 108 113 0
-104 -181 108 113 0
-105 -21 9 108 0
-105 -41 9 108 82 0
-105 -55 9 108 0
-106 -21 9 108 0
-106 -41 9 108 82 0
-106 -55 9 108 0
-107 -21 9 108 0
-107 -41 9 108 82 0
-107 -55 9 108 0
-111 -19 12 108 113 0
-111 -21 12 108 0
-111 -39 12 86 108 113 0
-111 -41 12 86 108 0
-111 -53 12 108 113 0
-111 -55 12 108 0
-111 -75 12 108 113 0
-111 -106 108 113 0
-111 -129 108 113 0
-111 -140 86 108 113 0
-111 -162 86 108 113 0
-111 -181 108 113 0
-114 -19 12 108 113 0
-114 -21 12 108 0
-114 -39 12 86 108 113 0
-114 -41 12 86 108 0
-114 -53 12 108 113 0
-114 -55 12 108 0
-114 -75 12 108 113 0
-114 -106 108 113 0
-114 -129 108 113 0
-114 -140 86 108 113 0
-114 -162 86 108 113 0
-114 -181 108 113 0
-124 -64 71 192 0
-124 -65 71 192 0
-125 -52 72 178 0
-125 -53 72 178 0
-125 -54 72 196 178 0
-125 -56 72 178 0
-125 -57 72 196 178 0
-125 -59 72 196 178 0
-126 -52 73 0
-126 -53 73 196 0
-126 -54 73 0
-126 -56 73 196 0
-126 -57 73 0
-126 -59 73 196 0
-128 -52 180 196 0
-128 -53 180 0
-128 -54 180 0
-128 -56 180 196 0
-128 -57 180 196 0
-128 -59 180 0
-131 -52 77 183 196 0
-131 -53 77 183 196 0
-131 -54 77 183 196 0
-131 -56 77 183 0
-131 -57 77 183 0
-131 -59 77 183 0
-158 -52 72 178 0
-158 -53 72 178 0
-158 -54 72 196 178 0
-158 -56 72 178 0
-158 -57 72 196 178 0
-158 -59 72 196 178 0
-159 -52 73 0
-159 -53 73 196 0
-159 -54 73 0
-159 -56 73 196 0
-159 -57 73 0
-159 -59 73 196 0
-161 -52 180 196 0
-161 -53 180 0
-161 -54 180 0
-161 -56 180 196 0
-161 -57 180 196 0
-161 -59 180 0
-164 -52 77 183 196 0
-164 -53 77 183 196 0
-164 -54 77 183 196 0
-164 -56 77 183 0
-164 -57 77 183 0
-164 -59 77 183 0
-187 -52 72 178 0
-187 -53 72 178 0
-199 -13 128 190 0
-199 -15 128 190 0
-199 -16 128 190 0
-199 -18 128 196 0
-199 -19 128 0
-199 -20 128 0
-199 -22 128 196 0
-199 -23 128 196 0
-199 -25 128 0
-199 -33 161 190 0
-199 -35 161 190 0
-199 -36 161 190 0
-199 -38 161 196 0
-199 -39 161 0
-199 -40 161 0
-199 -42 161 196 0
-199 -43 161 196 0
-199 -45 161 0
-199 -47 180 190 0
-199 -49 180 190 0
-199 -50 180 190 0
-199 -52 180 196 0
-199 -53 180 0
-199 -54 180 0
-199 -56 180 196 0
-199 -57 180 196 0
-199 -59 180 0
-199 -62 190 196 0
-199 -63 190 0
-199 -64 190 0
-199 -66 190 196 0
-199 -67 190 196 0
-199 -69 190 0
-199 -72 196 0
-199 -73 196 0
-199 -77 196 0
-199 -101 128 180 190 0
-199 -102 128 180 190 0
-199 -103 128 180 190 0
-199 -105 128 180 196 0
-199 -106 128 180 0
-199 -107 128 180 0
-199 -109 128 180 196 0
-199 -110 128 180 196 0
-199 -112 128 180 0
-199 -115 128 190 196 0
-199 -119 128 190 196 0
-199 -120 128 190 196 0
-199 -125 128 196 0
-199 -126 128 196 0
-54 -23 -123 -121 -141 -156 -140 -24 -136 -73 0
-40 -2 6 36 0
-40 -8 6 31 36 0
-40 -81 6 31 36 0
-40 -90 6 36 0
-40 -103 6 31 36 0
-43 -2 6 36 0
-43 -8 6 31 36 0
-43 -14 23 67 0
-43 -17 23 67 79 0
-43 -68 79 67 0
-43 -71 79 67 0
-43 -81 6 31 36 0
-43 -90 6 36 0
-43 -103 6 31 36 0
-43 -120 23 67 0
-43 -121 23 67 79 0
-43 -124 23 67 79 0
-43 -194 79 67 0
-45 -2 6 36 0
-45 -8 6 31 36 0
-45 -81 6 31 36 0
-45 -90 6 36 0
-45 -103 6 31 36 0
-46 -2 6 36 0
-46 -8 6 31 36 0
-46 -81 6 31 36 0
-46 -90 6 36 0
-46 -103 6 31 36 0
-54 -2 31 50 0
-54 -8 50 0
-54 -81 31 50 0
-54 -90 31 50 0
-54 -103 50 0
-57 -2 31 50 0
-57 -8 50 0
-57 -14 23 67 0
-57 -17 23 67 79 0
-57 -68 79 67 0
-57 -71 79 67 0
-57 -81 31 50 0
-57 -90 31 50 0
-57 -103 50 0
-57 -120 23 67 0
-57 -121 23 67 79 0
-57 -124 23 67 79 0
-57 -194 79 67 0
-59 -2 31 50 0
-59 -8 50 0
-59 -81 31 50 0
-59 -90 31 50 0
-26 -34 70 78 0
-26 -35 70 0
-26 -37 70 0
-26 -42 78 0
-26 -44 78 0
-26 -48 60 70 78 0
-26 -49 60 70 0
-26 -51 60 70 0
-26 -56 60 78 0
-26 -58 60 78 0
-26 -135 60 70 78 0
-26 -136 60 70 0
-26 -138 60 70 0
-26 -143 60 78 0
-26 -145 60 78 0
-26 -152 70 78 0
-26 -154 70 78 0
-26 -156 70 0
-26 -165 78 0
-26 -172 60 70 78 0
-26 -174 60 70 78 0
-26 -176 60 70 0
-26 -184 60 78 0
-44 -14 24 68 0
-44 -15 24 68 78 0
-44 -17 24 68 0
-44 -22 24 78 0
-44 -26 24 78 0
-44 -67 79 68 0
-44 -69 79 68 78 0
-44 -71 79 68 0
-44 -77 79 78 0
-44 -80 79 78 0
-44 -119 24 68 78 0
-44 -120 79 24 68 0
-44 -121 24 68 0
-44 -122 79 24 68 78 0
-44 -123 24 68 78 0
-44 -124 79 24 68 0
-44 -131 79 24 78 0
-44 -132 24 78 0
-44 -133 79 24 78 0
-44 -193 79 68 78 0
-44 -194 79 68 0
-44 -195 79 68 78 0
-44 -200 79 78 0
-58 -14 24 68 0
-58 -15 24 68 78 0
-58 -17 24 68 0
-58 -22 24 78 0
-3 -148 6 7 1 0
-3 -160 41 38 0
-4 -148 6 7 1 0
-4 -160 44 38 0
-5 -148 6 7 1 0
-9 -148 12 1 0
-9 -160 55 52 0
-10 -148 12 1 0
-10 -160 58 29 52 0
-11 -148 12 1 0
-13 -148 16 17 2 8 0
-14 -148 16 17 2 8 0
-15 -148 16 17 2 8 0
-18 -160 74 38 0
-33 -148 36 37 28 0
-33 -160 41 38 0
-34 -148 36 37 28 0
-34 -160 44 38 0
-35 -148 36 37 28 0
-39 -160 41 38 0
-40 -148 46 31 0
-40 -160 41 38 0
-42 -160 44 38 0
-43 -148 46 31 0
-43 -160 44 38 0
-45 -148 46 31 0
-47 -148 50 51 28 0
-47 -160 55 52 0
-48 -148 50 51 28 0
-48 -160 58 29 52 0
-49 -148 50 51 28 0
-53 -160 55 52 0
-54 -148 61 31 0
-54 -160 55 52 0
-56 -160 58 29 52 0
-57 -148 61 31 0
-57 -160 58 29 52 0
-59 -148 61 31 0
-62 -160 74 38 0
-64 -148 71 36 50 0
-65 -3 21 41 0
-65 -4 21 41 74 0
-65 -4 17 37 68 0
-65 -5 21 41 75 0
-65 -5 17 37 70 0
-65 -9 21 55 0
-65 -10 21 55 74 0
-65 -10 17 51 68 0
-65 -11 21 55 75 0
-65 -11 17 51 70 0
-97 -40 44 166 160 0
-97 -43 44 166 0
-97 -54 44 166 145 160 0
-97 -57 44 166 145 0
-97 -73 44 166 160 0
-97 -141 166 145 160 0
-97 -144 166 145 0
-97 -159 166 160 0
-97 -163 166 160 0
-97 -182 166 145 160 0
-97 -185 166 145 0
-97 -198 166 160 0
-102 -3 8 81 101 0
-102 -4 8 81 0
-102 -9 8 101 0
-102 -10 8 0
-102 -13 8 101 0
-102 -14 8 0
-102 -18 8 101 0
-102 -33 8 81 101 0
-102 -34 8 81 0
-102 -40 8 103 81 101 0
-102 -43 8 103 81 0
-102 -47 8 101 0
-102 -48 8 0
-102 -54 8 103 101 0
-102 -57 8 103 0
-102 -62 8 101 0
-102 -64 8 103 101 0
-102 -67 8 103 0
-102 -73 8 103 101 0
-102 -82 81 101 0
-102 -83 81 0
-102 -87 81 101 0
-102 -88 81 0
-102 -91 81 101 0
-102 -93 103 81 101 0
-102 -94 104 81 101 0
-102 -96 103 81 0
-102 -97 104 81 0
-102 -107 103 101 0
-102 -108 104 101 0
-102 -110 103 0
-102 -111 104 0
-102 -117 103 101 0
-102 -118 104 101 0
-102 -120 103 0
-102 -121 104 0
-102 -126 103 101 0
-102 -127 104 101 0
-153 -3 36 90 150 0
-153 -5 36 90 155 0
-153 -9 36 90 137 150 0
-153 -11 36 90 137 155 0
-153 -13 36 90 150 0
-153 -15 36 90 155 0
-153 -33 36 150 0
-153 -35 36 155 0
-153 -39 36 150 155 0
-153 -40 36 150 0
-153 -45 36 155 0
-153 -47 36 137 150 0
-153 -49 36 137 155 0
-153 -53 36 137 150 155 0
-153 -54 36 137 150 0
-153 -59 36 137 155 0
-153 -63 36 150 155 0
-153 -64 36 150 0
-153 -69 36 155 0
-153 -82 90 137 150 0
-153 -84 90 137 155 0
-153 -87 90 150 0
-153 -89 90 155 0
-153 -92 90 150 155 0
-153 -93 90 150 0
-153 -94 90 150 157 0
-153 -98 90 155 0
-153 -99 90 157 155 0
-153 -106 90 137 150 155 0
-153 -107 90 137 150 0
-153 -108 90 137 150 157 0
-153 -112 90 137 155 0
-153 -113 90 137 157 155 0
-153 -116 90 150 155 0
-153 -117 90 150 0
-153 -118 90 150 157 0
-153 -122 90 155 0
-153 -123 90 157 155 0
-153 -134 137 150 0
-153 -136 137 155 0
-153 -140 137 150 155 0
-153 -141 137 150 0
-153 -146 137 155 0
-153 -151 157 150 0
-153 -156 157 155 0
-153 -162 157 150 155 0
-153 -163 157 150 0
-153 -167 157 155 0
-153 -169 137 150 155 0
-153 -170 137 150 0
-108 -42 -57 -151 -110 -118 -77 -107 -156 -35 0
-9 -111 108 105 0
-9 -118 108 101 0
-9 -121 108 101 105 0
-9 -127 108 105 0
-9 -171 108 101 0
-9 -174 108 101 105 0
-9 -189 108 101 105 0
-82 -111 108 105 0
-82 -118 108 101 0
-82 -121 108 101 105 0
-82 -127 108 105 0
-82 -171 108 101 0
-82 -174 108 101 105 0
-82 -189 108 101 105 0
-94 -9 21 108 0
-94 -11 21 108 129 0
-94 -53 21 108 129 0
-94 -54 21 130 108 0
-94 -59 21 130 108 129 0
-94 -106 108 129 0
-94 -107 130 108 0
-94 -112 130 108 129 0
-94 -113 108 129 0
-94 -181 108 129 0
-94 -182 130 108 0
-94 -186 130 108 129 0
-106 -111 108 105 0
-106 -118 108 101 0
-106 -121 108 101 105 0
-106 -127 108 105 0
-106 -171 108 101 0
-106 -174 108 101 105 0
-106 -189 108 101 105 0
-107 -111 108 105 0
-107 -118 108 101 0
-107 -121 108 101 105 0
-107 -127 108 105 0
-107 -171 108 101 0
-107 -174 108 101 105 0
-107 -189 108 101 105 0
-111 -3 12 86 108 0
-111 -9 12 108 0
-111 -13 12 104 108 0
-111 -33 12 86 104 108 0
-111 -40 12 114 86 108 0
-111 -47 12 104 108 0
-111 -54 12 114 108 0
-111 -64 12 114 104 108 0
-111 -82 86 108 0
-111 -87 86 104 108 0
-48 -86 135 174 0
-48 -94 135 168 174 0
-48 -97 135 174 0
-48 -99 135 174 172 0
-48 -104 174 0
-48 -108 168 174 0
-48 -111 174 0
-48 -118 168 174 0
-48 -121 174 0
-48 -123 174 172 0
-48 -127 168 174 0
-48 -129 168 174 172 0
-48 -132 174 172 0
-48 -138 174 135 0
-48 -147 174 135 172 0
-48 -151 174 135 168 0
-48 -154 174 135 0
-48 -156 174 135 172 0
-48 -162 174 135 168 172 0
-48 -165 174 135 172 0
-48 -171 174 168 0
-48 -176 174 172 0
-48 -181 174 168 172 0
-48 -184 174 172 0
-48 -189 174 168 0
-48 -191 174 168 172 0
-48 -197 174 168 172 0
-51 -173 177 174 0
-58 -137 185 145 174 0
-58 -138 145 174 0
-58 -150 185 145 174 179 0
-58 -151 145 174 179 0
-58 -153 185 145 174 0
-58 -154 145 174 0
-58 -170 185 174 179 0
-58 -171 174 179 0
-58 -173 185 174 0
-58 -188 185 174 179 0
-58 -189 174 179 0
-58 -192 185 174 179 0
-104 -173 177 174 0
-111 -137 185 145 174 0
-111 -138 145 174 0
-111 -150 185 145 174 179 0
-111 -151 145 174 179 0
-111 -153 185 145 174 0
-111 -154 145 174 0
-111 -170 185 174 179 0
-111 -171 174 179 0
-111 -173 185 174 0
-130 -1 27 100 114 0
-130 -4 27 100 0
-130 -5 27 100 133 0
-130 -6 27 100 0
-130 -7 27 100 0
-130 -8 27 114 124 0
-130 -10 27 114 0
-130 -14 27 124 0
-130 -15 27 124 133 0
-130 -16 27 124 0
-130 -17 27 124 0
-130 -22 27 133 0
-130 -23 27 0
-130 -24 27 0
-130 -28 27 100 114 124 0
-130 -30 76 163 182 199 0
-130 -30 27 100 114 133 0
-130 -31 76 163 182 0
-130 -31 27 100 114 0
-130 -32 76 163 182 0
-130 -32 27 100 114 0
-130 -34 27 100 124 0
-130 -35 27 100 124 133 0
-130 -36 27 100 124 0
-130 -37 27 100 124 0
-130 -39 76 163 199 0
-130 -40 76 163 0
-130 -41 76 163 0
-130 -42 76 163 198 199 0
-130 -42 27 100 133 0
-130 -43 76 163 198 0
-130 -43 27 100 0
-130 -44 76 163 198 0
-130 -44 27 100 0
-130 -48 27 114 124 0
-130 -49 27 114 124 133 0
-130 -50 27 114 124 0
-130 -51 27 114 124 0
-130 -53 76 182 199 0
-130 -54 76 182 0
-130 -55 76 182 0
-130 -56 76 182 198 199 0
-130 -56 27 114 133 0
-130 -57 76 182 198 0
-130 -57 27 114 0
-130 -58 76 182 198 0
-130 -58 27 114 0
-130 -72 76 198 199 0
-130 -73 76 198 0
-130 -74 76 198 0
-192 -1 76 130 163 182 0
-192 -1 71 124 157 177 0
-192 -3 76 130 163 0
-192 -4 76 130 163 198 0
-192 -4 71 124 157 194 0
-192 -5 76 130 163 199 0
-192 -5 71 124 157 195 0
-192 -6 76 130 163 0
-192 -6 71 124 157 0
-192 -7 76 130 163 0
-192 -7 71 124 157 0
-192 -8 71 124 177 0
-192 -9 76 130 182 0
-192 -10 76 130 182 198 0
-192 -10 71 124 177 194 0
-192 -14 71 124 194 0
-192 -15 71 124 195 0
-192 -16 71 124 0
-192 -17 71 124 0
-192 -18 76 130 198 0
-192 -19 76 130 199 0
-192 -20 76 130 0
-192 -21 76 130 0
-192 -22 76 130 198 199 0
-192 -22 71 124 194 195 0
-192 -23 76 130 198 0
-192 -23 71 124 194 0
-192 -24 76 130 198 0
-192 -24 71 124 194 0
-192 -28 71 157 177 0
-192 -30 76 163 182 199 0
-192 -30 71 157 177 195 0
-192 -31 76 163 182 0
-192 -31 71 157 177 0
-192 -32 76 163 182 0
-192 -32 71 157 177 0
-192 -34 71 157 194 0
-192 -35 71 157 195 0
-192 -36 71 157 0
-192 -37 71 157 0
-192 -39 76 163 199 0
-192 -40 76 163 0
-192 -41 76 163 0
-192 -42 76 163 198 199 0
-192 -42 71 157 194 195 0
-192 -43 76 163 198 0
-192 -43 71 157 194 0
-192 -44 76 163 198 0
-192 -44 71 157 194 0
-192 -48 71 177 194 0
-155 -54 -10 -154 -9 -180 -121 -156 -161 -24 0
